     Program PWSCF v.6.7MaX starts on  1Jan2023 at 17:38:35

     R & G space division:  proc/nbgrp/npool/nimage =       4
     Waiting for input...
     Reading input from standard input

     Current dimensions of program PWSCF are:
     Max number of different atomic species (ntypx) = 10
     Max number of k-points (npk) =  40000
     Max angular momentum in pseudopotentials (lmaxx) =  3

     Message from routine setup:
     using ibrav=0 with symmetry is DISCOURAGED, use correct ibrav instead

     bravais-lattice index     =            0
     lattice parameter (alat)  =       8.0509  a.u.
     unit-cell volume          =     368.9970 (a.u.)^3
     number of atoms/cell      =            2
     number of atomic types    =            2
     number of electrons       =        20.00
     number of Kohn-Sham states=           10
     kinetic-energy cutoff     =      40.0000  Ry
     charge density cutoff     =     320.0000  Ry
     scf convergence threshold =      4.0E-10
     mixing beta               =       0.4000
     number of iterations used =            8  plain     mixing
     Exchange-correlation= SLA  PW   PSX  PSC
                           (   1   4  10   8   0   0   0)

     celldm(1)=   8.050928  celldm(2)=   0.000000  celldm(3)=   0.000000
     celldm(4)=   0.000000  celldm(5)=   0.000000  celldm(6)=   0.000000

     crystal axes: (cart. coord. in units of alat)
               a(1) = (   1.000000   0.000000   0.000000 )
               a(2) = (   0.500000   0.866025   0.000000 )
               a(3) = (   0.500000   0.288675   0.816497 )

     reciprocal axes: (cart. coord. in units 2 pi/alat)
               b(1) = (  1.000000 -0.577350 -0.408248 )
               b(2) = (  0.000000  1.154701 -0.408248 )
               b(3) = (  0.000000  0.000000  1.224745 )

     PseudoPot. # 1 for Ge read from file:
     ./pseudo/ge_pbesol_v1.4.uspp.F.UPF
     MD5 check sum: 7bed0412183f5e553a4d27ec7023354d
     Pseudo is Ultrasoft + core correction, Zval = 14.0
     Generated by new atomic code, or converted to UPF format
     Using radial grid of  873 points,  6 beta functions with:
                l(1) =   0
                l(2) =   0
                l(3) =   1
                l(4) =   1
                l(5) =   2
                l(6) =   2
     Q(r) pseudized with  8 coefficients,  rinner =    1.400   1.400   1.400
                                                       1.400   1.400

     PseudoPot. # 2 for Te read from file:
     ./pseudo/te_pbesol_v1.uspp.F.UPF
     MD5 check sum: 44ee7635674656c288d8e9a9a9ffd7e3
     Pseudo is Ultrasoft + core correction, Zval =  6.0
     Generated by new atomic code, or converted to UPF format
     Using radial grid of  891 points,  5 beta functions with:
                l(1) =   0
                l(2) =   0
                l(3) =   1
                l(4) =   1
                l(5) =   2
     Q(r) pseudized with  6 coefficients,  rinner =    1.800   1.800   1.800
                                                       1.800   1.800

     atomic species   valence    mass     pseudopotential
        Ge            14.00    72.64000     Ge( 1.00)
        Te             6.00   127.60000     Te( 1.00)

     12 Sym. Ops., with inversion, found

                                    s                        frac. trans.

      isym =  1     identity

 cryst.   s( 1) = (     1          0          0      )
                  (     0          1          0      )
                  (     0          0          1      )

 cart.    s( 1) = (  1.0000000  0.0000000  0.0000000 )
                  (  0.0000000  1.0000000  0.0000000 )
                  (  0.0000000  0.0000000  1.0000000 )

      isym =  2     180 deg rotation - cart. axis [1,0,0]

[...]

      isym =  3     120 deg rotation - cryst. axis [0,0,1]

[...]

      isym =  6     180 deg rotation - cryst. axis [1,1,0]

[...]

      isym =  7     inversion

[...]

      isym =  8     inv. 180 deg rotation - cart. axis [1,0,0]

[...]

      isym =  9     inv. 120 deg rotation - cryst. axis [0,0,1]

 cryst.   s( 9) = (     1         -1          0      )
                  (     1          0          0      )
                  (     1          0         -1      )

 cart.    s( 9) = (  0.5000000  0.8660254 -0.0000000 )
                  ( -0.8660254  0.5000000  0.0000000 )
                  (  0.0000000  0.0000000 -1.0000000 )

[...]

 cryst.   s(10) = (     0          1          0      )
                  (    -1          1          0      )
                  (     0          1         -1      )

 cart.    s(10) = (  0.5000000 -0.8660254 -0.0000000 )
                  (  0.8660254  0.5000000 -0.0000000 )
                  (  0.0000000  0.0000000 -1.0000000 )

[...]

      isym = 12     inv. 180 deg rotation - cryst. axis [1,1,0]

 cryst.   s(12) = (     1         -1          0      )
                  (     0         -1          0      )
                  (     0         -1          1      )

 cart.    s(12) = (  0.5000000 -0.8660254  0.0000000 )
                  ( -0.8660254 -0.5000000  0.0000000 )
                  (  0.0000000  0.0000000  1.0000000 )

   Cartesian axes

     site n.     atom                  positions (alat units)
         1           Ge  tau(   1) = (   0.0000000   0.0000000   0.0000000  )
         2           Te  tau(   2) = (   1.0000000   0.5773503   0.4082483  )

   Crystallographic axes

     site n.     atom                  positions (cryst. coord.)
         1           Ge  tau(   1) = (  0.0000000  0.0000000  0.0000000  )
         2           Te  tau(   2) = (  0.5000000  0.5000000  0.5000000  )

     number of k points=   595
                       cart. coord. in units 2pi/alat
        k(    1) = (   0.0384615   0.0222058   0.0157019), wk =   0.0018207
        k(    2) = (   0.0384615   0.0222058   0.1099130), wk =   0.0018207
        k(    3) = (   0.0384615   0.0222058   0.2041241), wk =   0.0018207
        k(    4) = (   0.0384615   0.0222058   0.2983353), wk =   0.0018207
        k(    5) = (   0.0384615   0.0222058   0.3925464), wk =   0.0018207
        k(    6) = (   0.0384615   0.0222058   0.4867576), wk =   0.0018207
        k(    7) = (   0.0384615   0.0222058  -0.6437762), wk =   0.0018207
        k(    8) = (   0.0384615   0.0222058  -0.5495650), wk =   0.0018207
        k(    9) = (   0.0384615   0.0222058  -0.4553539), wk =   0.0018207
        k(   10) = (   0.0384615   0.0222058  -0.3611427), wk =   0.0018207
        k(   11) = (   0.0384615   0.0222058  -0.2669316), wk =   0.0018207
        k(   12) = (   0.0384615   0.0222058  -0.1727204), wk =   0.0018207
        k(   13) = (   0.0384615   0.0222058  -0.0785093), wk =   0.0018207
        k(   14) = (   0.0384615   0.1110289  -0.0157019), wk =   0.0036413
        k(   15) = (   0.0384615   0.1110289   0.0785093), wk =   0.0036413
        k(   16) = (   0.0384615   0.1110289   0.1727204), wk =   0.0036413
        k(   17) = (   0.0384615   0.1110289   0.2669316), wk =   0.0036413
        k(   18) = (   0.0384615   0.1110289   0.3611427), wk =   0.0036413
        k(   19) = (   0.0384615   0.1110289   0.4553539), wk =   0.0036413
        k(   20) = (   0.0384615   0.1110289  -0.6751799), wk =   0.0036413
        k(   21) = (   0.0384615   0.1110289  -0.5809687), wk =   0.0036413
        k(   22) = (   0.0384615   0.1110289  -0.4867576), wk =   0.0036413
        k(   23) = (   0.0384615   0.1110289  -0.3925464), wk =   0.0036413
        k(   24) = (   0.0384615   0.1110289  -0.2983353), wk =   0.0036413
        k(   25) = (   0.0384615   0.1110289  -0.2041241), wk =   0.0036413
        k(   26) = (   0.0384615   0.1110289  -0.1099130), wk =   0.0036413
        k(   27) = (   0.0384615   0.1998520  -0.0471056), wk =   0.0036413
        k(   28) = (   0.0384615   0.1998520   0.0471056), wk =   0.0036413
        k(   29) = (   0.0384615   0.1998520   0.1413167), wk =   0.0036413
        k(   30) = (   0.0384615   0.1998520   0.2355279), wk =   0.0036413
        k(   31) = (   0.0384615   0.1998520   0.3297390), wk =   0.0036413
        k(   32) = (   0.0384615   0.1998520   0.4239501), wk =   0.0036413
        k(   33) = (   0.0384615   0.1998520  -0.7065836), wk =   0.0036413
        k(   34) = (   0.0384615   0.1998520  -0.6123724), wk =   0.0036413
        k(   35) = (   0.0384615   0.1998520  -0.5181613), wk =   0.0036413
        k(   36) = (   0.0384615   0.1998520  -0.4239501), wk =   0.0036413
        k(   37) = (   0.0384615   0.1998520  -0.3297390), wk =   0.0036413
        k(   38) = (   0.0384615   0.1998520  -0.2355279), wk =   0.0036413
        k(   39) = (   0.0384615   0.1998520  -0.1413167), wk =   0.0036413
        k(   40) = (   0.0384615   0.2886751  -0.0785093), wk =   0.0036413
        k(   41) = (   0.0384615   0.2886751   0.0157019), wk =   0.0036413
        k(   42) = (   0.0384615   0.2886751   0.1099130), wk =   0.0036413
        k(   43) = (   0.0384615   0.2886751   0.2041241), wk =   0.0036413
        k(   44) = (   0.0384615   0.2886751   0.2983353), wk =   0.0036413
        k(   45) = (   0.0384615   0.2886751   0.3925464), wk =   0.0036413
        k(   46) = (   0.0384615   0.2886751  -0.7379873), wk =   0.0036413
        k(   47) = (   0.0384615   0.2886751  -0.6437762), wk =   0.0036413
        k(   48) = (   0.0384615   0.2886751  -0.5495650), wk =   0.0036413
        k(   49) = (   0.0384615   0.2886751  -0.4553539), wk =   0.0036413
        k(   50) = (   0.0384615   0.2886751  -0.3611427), wk =   0.0036413
        k(   51) = (   0.0384615   0.2886751  -0.2669316), wk =   0.0036413
        k(   52) = (   0.0384615   0.2886751  -0.1727204), wk =   0.0036413
        k(   53) = (   0.0384615   0.3774983  -0.1099130), wk =   0.0036413
        k(   54) = (   0.0384615   0.3774983  -0.0157019), wk =   0.0036413
        k(   55) = (   0.0384615   0.3774983   0.0785093), wk =   0.0036413
        k(   56) = (   0.0384615   0.3774983   0.1727204), wk =   0.0036413
        k(   57) = (   0.0384615   0.3774983   0.2669316), wk =   0.0036413
        k(   58) = (   0.0384615   0.3774983   0.3611427), wk =   0.0036413
        k(   59) = (   0.0384615   0.3774983  -0.7693910), wk =   0.0036413
        k(   60) = (   0.0384615   0.3774983  -0.6751799), wk =   0.0036413
[...]
        k(  581) = (   0.4230769  -0.8216138  -0.0157019), wk =   0.0036413
        k(  582) = (   0.4230769  -0.7327907   0.0471056), wk =   0.0036413
        k(  583) = (   0.4230769  -0.7327907   0.1413167), wk =   0.0036413
        k(  584) = (   0.4230769  -0.7327907   0.2355279), wk =   0.0036413
        k(  585) = (   0.4230769  -0.7327907   0.3297390), wk =   0.0036413
        k(  586) = (   0.4230769  -0.7327907   0.4239501), wk =   0.0036413
        k(  587) = (   0.4230769  -0.7327907   0.5181613), wk =   0.0036413
        k(  588) = (   0.4230769  -0.7327907  -0.6123724), wk =   0.0018207
        k(  589) = (  -0.5000000  -0.2886751   0.4553539), wk =   0.0018207
        k(  590) = (  -0.5000000  -0.2886751   0.5495650), wk =   0.0018207
        k(  591) = (  -0.5000000  -0.2886751   0.6437762), wk =   0.0018207
        k(  592) = (  -0.5000000  -0.2886751   0.7379873), wk =   0.0018207
        k(  593) = (  -0.5000000  -0.2886751   0.8321984), wk =   0.0018207
        k(  594) = (  -0.5000000  -0.2886751   0.9264096), wk =   0.0018207
        k(  595) = (  -0.5000000  -0.2886751  -0.2041241), wk =   0.0009103

                       cryst. coord.
        k(    1) = (   0.0384615   0.0384615   0.0384615), wk =   0.0018207
        k(    2) = (   0.0384615   0.0384615   0.1153846), wk =   0.0018207
        k(    3) = (   0.0384615   0.0384615   0.1923077), wk =   0.0018207
        k(    4) = (   0.0384615   0.0384615   0.2692308), wk =   0.0018207
        k(    5) = (   0.0384615   0.0384615   0.3461538), wk =   0.0018207
        k(    6) = (   0.0384615   0.0384615   0.4230769), wk =   0.0018207
        k(    7) = (   0.0384615   0.0384615  -0.5000000), wk =   0.0018207
        k(    8) = (   0.0384615   0.0384615  -0.4230769), wk =   0.0018207
        k(    9) = (   0.0384615   0.0384615  -0.3461538), wk =   0.0018207
        k(   10) = (   0.0384615   0.0384615  -0.2692308), wk =   0.0018207
        k(   11) = (   0.0384615   0.0384615  -0.1923077), wk =   0.0018207
        k(   12) = (   0.0384615   0.0384615  -0.1153846), wk =   0.0018207
        k(   13) = (   0.0384615   0.0384615  -0.0384615), wk =   0.0018207
        k(   14) = (   0.0384615   0.1153846   0.0384615), wk =   0.0036413
        k(   15) = (   0.0384615   0.1153846   0.1153846), wk =   0.0036413
        k(   16) = (   0.0384615   0.1153846   0.1923077), wk =   0.0036413
        k(   17) = (   0.0384615   0.1153846   0.2692308), wk =   0.0036413
        k(   18) = (   0.0384615   0.1153846   0.3461538), wk =   0.0036413
        k(   19) = (   0.0384615   0.1153846   0.4230769), wk =   0.0036413
        k(   20) = (   0.0384615   0.1153846  -0.5000000), wk =   0.0036413
        k(   21) = (   0.0384615   0.1153846  -0.4230769), wk =   0.0036413
        k(   22) = (   0.0384615   0.1153846  -0.3461538), wk =   0.0036413
        k(   23) = (   0.0384615   0.1153846  -0.2692308), wk =   0.0036413
        k(   24) = (   0.0384615   0.1153846  -0.1923077), wk =   0.0036413
        k(   25) = (   0.0384615   0.1153846  -0.1153846), wk =   0.0036413
        k(   26) = (   0.0384615   0.1153846  -0.0384615), wk =   0.0036413
        k(   27) = (   0.0384615   0.1923077   0.0384615), wk =   0.0036413
        k(   28) = (   0.0384615   0.1923077   0.1153846), wk =   0.0036413
        k(   29) = (   0.0384615   0.1923077   0.1923077), wk =   0.0036413
        k(   30) = (   0.0384615   0.1923077   0.2692308), wk =   0.0036413
        k(   31) = (   0.0384615   0.1923077   0.3461538), wk =   0.0036413
        k(   32) = (   0.0384615   0.1923077   0.4230769), wk =   0.0036413
        k(   33) = (   0.0384615   0.1923077  -0.5000000), wk =   0.0036413
        k(   34) = (   0.0384615   0.1923077  -0.4230769), wk =   0.0036413
        k(   35) = (   0.0384615   0.1923077  -0.3461538), wk =   0.0036413
        k(   36) = (   0.0384615   0.1923077  -0.2692308), wk =   0.0036413
        k(   37) = (   0.0384615   0.1923077  -0.1923077), wk =   0.0036413
        k(   38) = (   0.0384615   0.1923077  -0.1153846), wk =   0.0036413
        k(   39) = (   0.0384615   0.1923077  -0.0384615), wk =   0.0036413
        k(   40) = (   0.0384615   0.2692308   0.0384615), wk =   0.0036413
        k(   41) = (   0.0384615   0.2692308   0.1153846), wk =   0.0036413
        k(   42) = (   0.0384615   0.2692308   0.1923077), wk =   0.0036413
        k(   43) = (   0.0384615   0.2692308   0.2692308), wk =   0.0036413
        k(   44) = (   0.0384615   0.2692308   0.3461538), wk =   0.0036413
        k(   45) = (   0.0384615   0.2692308   0.4230769), wk =   0.0036413
        k(   46) = (   0.0384615   0.2692308  -0.5000000), wk =   0.0036413
        k(   47) = (   0.0384615   0.2692308  -0.4230769), wk =   0.0036413
        k(   48) = (   0.0384615   0.2692308  -0.3461538), wk =   0.0036413
        k(   49) = (   0.0384615   0.2692308  -0.2692308), wk =   0.0036413
        k(   50) = (   0.0384615   0.2692308  -0.1923077), wk =   0.0036413
        k(   51) = (   0.0384615   0.2692308  -0.1153846), wk =   0.0036413
        k(   52) = (   0.0384615   0.2692308  -0.0384615), wk =   0.0036413
        k(   53) = (   0.0384615   0.3461538   0.0384615), wk =   0.0036413
        k(   54) = (   0.0384615   0.3461538   0.1153846), wk =   0.0036413
        k(   55) = (   0.0384615   0.3461538   0.1923077), wk =   0.0036413
        k(   56) = (   0.0384615   0.3461538   0.2692308), wk =   0.0036413
        k(   57) = (   0.0384615   0.3461538   0.3461538), wk =   0.0036413
        k(   58) = (   0.0384615   0.3461538   0.4230769), wk =   0.0036413
        k(   59) = (   0.0384615   0.3461538  -0.5000000), wk =   0.0036413
        k(   60) = (   0.0384615   0.3461538  -0.4230769), wk =   0.0036413
[...]
        k(  581) = (   0.4230769  -0.5000000  -0.0384615), wk =   0.0036413
        k(  582) = (   0.4230769  -0.4230769   0.0384615), wk =   0.0036413
        k(  583) = (   0.4230769  -0.4230769   0.1153846), wk =   0.0036413
        k(  584) = (   0.4230769  -0.4230769   0.1923077), wk =   0.0036413
        k(  585) = (   0.4230769  -0.4230769   0.2692308), wk =   0.0036413
        k(  586) = (   0.4230769  -0.4230769   0.3461538), wk =   0.0036413
        k(  587) = (   0.4230769  -0.4230769   0.4230769), wk =   0.0036413
        k(  588) = (   0.4230769  -0.4230769  -0.5000000), wk =   0.0018207
        k(  589) = (  -0.5000000  -0.5000000   0.0384615), wk =   0.0018207
        k(  590) = (  -0.5000000  -0.5000000   0.1153846), wk =   0.0018207
        k(  591) = (  -0.5000000  -0.5000000   0.1923077), wk =   0.0018207
        k(  592) = (  -0.5000000  -0.5000000   0.2692308), wk =   0.0018207
        k(  593) = (  -0.5000000  -0.5000000   0.3461538), wk =   0.0018207
        k(  594) = (  -0.5000000  -0.5000000   0.4230769), wk =   0.0018207
        k(  595) = (  -0.5000000  -0.5000000  -0.5000000), wk =   0.0009103

     Initial potential from superposition of free atoms

     starting charge   19.99899, renormalised to   20.00000
     Starting wfcs are   13 randomized atomic wfcs

     Self-consistent Calculation

     iteration #  1     ecut=    40.00 Ry     beta= 0.40
     Davidson diagonalization with overlap
     ethr =  1.00E-02,  avg # of iterations =  1.8

     Threshold (ethr) on eigenvalues was too large:
     Diagonalizing with lowered threshold

     Davidson diagonalization with overlap
     ethr =  4.43E-05,  avg # of iterations =  3.4

     total energy              =    -239.63505141 Ry
     estimated scf accuracy    <       0.00797342 Ry

[...]

     total energy              =    -239.63636259 Ry
     estimated scf accuracy    <          1.1E-09 Ry

     iteration # 12     ecut=    40.00 Ry     beta= 0.40
     Davidson diagonalization with overlap
     ethr =  5.52E-12,  avg # of iterations =  5.0

     End of self-consistent calculation

          k = 0.0385 0.0222 0.0157 (  1561 PWs)   bands (ev):

   -17.6790 -17.6790 -17.6740 -17.6738 -17.6738  -5.7474   2.1979   5.5782
     5.5783   5.6193

     occupation numbers
     1.0000   1.0000   1.0000   1.0000   1.0000   1.0000   1.0000   1.0000
     1.0000   1.0000

[...]

          k = 0.4231-0.7328-0.6124 (  1574 PWs)   bands (ev):

[...]

          k =-0.5000-0.2887 0.4554 (  1588 PWs)   bands (ev):

[...]

          k =-0.5000-0.2887-0.2041 (  1568 PWs)   bands (ev):

   -17.6802 -17.6801 -17.6733 -17.6721 -17.6719  -4.0487  -1.7574   5.9731
     5.9731   7.1721

     occupation numbers
     1.0000   1.0000   1.0000   1.0000   1.0000   1.0000   1.0000   1.0000
     1.0000   1.0000

     highest occupied level (ev):     7.1721

!    total energy              =    -239.63636259 Ry
     estimated scf accuracy    <          9.8E-11 Ry

     The total energy is the sum of the following terms:
     one-electron contribution =    -147.05161364 Ry
     hartree contribution      =      88.78513219 Ry
     xc contribution           =     -71.86763698 Ry
     ewald contribution        =    -109.50224416 Ry

     convergence has been achieved in  12 iterations

     Writing output data file ./out/gete.save/

     General routines

     Parallel routines

   This run was terminated on:  17:39:43   1Jan2023

   JOB DONE.