     Program PHONON v.6.7MaX starts on  1Jan2023 at 15:58:24

     R & G space division:  proc/nbgrp/npool/nimage =       4
     Waiting for input...
     Reading input from standard input

     Reading xml data from directory:

     ../tmp/mos2.save/

     IMPORTANT: XC functional enforced from input :
     Exchange-correlation= PZ
                           (   1   1   0   0   0   0   0)
     Any further DFT definition will be discarded
     Please, verify this is what you really want

 ----2D----2D----2D----2D----2D----2D----2D----2D----2D----2D----2D----2D
  The code is running with the 2D cutoff
  Please refer to:
  Sohier, T., Calandra, M., & Mauri, F. (2017),
  Density functional perturbation theory for gated two-dimensional heterostructures:
  Theoretical developments and application to flexural phonons in graphene.
 ----2D----2D----2D----2D----2D----2D----2D----2D----2D----2D----2D----2D
     Reading collected, re-writing distributed wavefunctions

     Calculation of q =    0.0000000   0.0000000   0.0000000

     phonon calc.

     bravais-lattice index     =            4
     lattice parameter (alat)  =       5.9296  a.u.
     unit-cell volume          =    1150.8250 (a.u.)^3
     number of atoms/cell      =            3
     number of atomic types    =            2
     kinetic-energy cut-off    =      80.0000  Ry
     charge density cut-off    =     320.0000  Ry
     convergence threshold     =      1.0E-14
     beta                      =       0.7000
     number of iterations used =            4
     Exchange-correlation= PZ
                           (   1   1   0   0   0   0   0)

     celldm(1)=    5.92959  celldm(2)=    0.00000  celldm(3)=    6.37388
     celldm(4)=    0.00000  celldm(5)=    0.00000  celldm(6)=    0.00000

     crystal axes: (cart. coord. in units of alat)
               a(1) = (  1.0000  0.0000  0.0000 )
               a(2) = ( -0.5000  0.8660  0.0000 )
               a(3) = (  0.0000  0.0000  6.3739 )

     reciprocal axes: (cart. coord. in units 2 pi/alat)
               b(1) = (  1.0000  0.5774 -0.0000 )
               b(2) = (  0.0000  1.1547  0.0000 )
               b(3) = (  0.0000 -0.0000  0.1569 )

     Atoms inside the unit cell:

     Cartesian axes

     site n.  atom      mass           positions (alat units)
        1     Mo  95.9400   tau(    1) = (    0.00000    0.00000    3.18694  )
        2     S   32.0650   tau(    2) = (   -0.00000    0.57735    2.68887  )
        3     S   32.0650   tau(    3) = (   -0.00000    0.57735    3.68501  )

     Computing dynamical matrix for
                    q = (   0.0000000   0.0000000   0.0000000 )

     13 Sym.Ops. (with q -> -q+G )

     G cutoff =  284.9968  (  27823 G-vectors)     FFT grid: ( 36, 36,216)
     number of k points=     7
                       cart. coord. in units 2pi/alat
        k(    1) = (   0.0000000   0.0000000   0.0000000), wk =   0.0555556
        k(    2) = (   0.0000000   0.1924501   0.0000000), wk =   0.3333333
        k(    3) = (   0.0000000   0.3849002   0.0000000), wk =   0.3333333
        k(    4) = (   0.0000000  -0.5773503   0.0000000), wk =   0.1666667
        k(    5) = (   0.1666667   0.2886751   0.0000000), wk =   0.3333333
        k(    6) = (   0.1666667   0.4811252   0.0000000), wk =   0.6666667
        k(    7) = (   0.3333333   0.5773503   0.0000000), wk =   0.1111111

     PseudoPot. # 1 for Mo read from file:
     ../pseudo/Mo.pz-hgh.UPF
     MD5 check sum: ddacfae2313397baf1b67b06fa6affd0
     Pseudo is Norm-conserving, Zval =  6.0
     Generated in analytical, separable form
     Using radial grid of 1229 points,  6 beta functions with:
                l(1) =   0
                l(2) =   0
                l(3) =   1
                l(4) =   1
                l(5) =   2
                l(6) =   2

     PseudoPot. # 2 for S  read from file:
     ../pseudo/S.pz-hgh.UPF
     MD5 check sum: 38f9f902ee430b58f9df3cf2bf519617
     Pseudo is Norm-conserving, Zval =  6.0
     Generated in analytical, separable form
     Using radial grid of 1151 points,  3 beta functions with:
                l(1) =   0
                l(2) =   0
                l(3) =   1

     Mode symmetry, D_3h (-62m) point group:

     Electric field:
     Dielectric constant
     Born effective charges as d Force / d E
     Raman tensor

     Atomic displacements:
     There are    6 irreducible representations

     Representation     1      1 modes -  To be done

[...]

     Representation     6      2 modes -  To be done

     Alpha used in Ewald sum =   2.8000

     Electric Fields Calculation

      thresh= 1.000E-02 alpha_mix =  0.700 |ddv_scf|^2 =  1.622E-03

[...]

     End of electric fields calculation

          Dielectric constant in cartesian axis

          (       5.240987248       0.000000000       0.000000000 )
          (      -0.000000000       5.240987248       0.000000000 )
          (      -0.000000000      -0.000000000       1.256417051 )

          Effective charges (d Force / dE) in cartesian axis

           atom      1   Mo
      Ex  (       -1.46826        0.00000       -0.00000 )
      Ey  (        0.00000       -1.46826        0.00000 )
      Ez  (        0.00000       -0.00000       -0.08479 )
           atom      2   S
      Ex  (        0.72624        0.00000        0.00000 )
      Ey  (        0.00000        0.72624       -0.00000 )
      Ez  (        0.00000       -0.00000        0.04454 )
           atom      3   S
      Ex  (        0.72624       -0.00000        0.00000 )
      Ey  (       -0.00000        0.72624        0.00000 )
      Ez  (        0.00000        0.00000        0.04454 )

     Calling punch_plot_e
     Writing on file  drho

     Computing Pc [DH,Drho] |psi>

     Derivative coefficient:  0.001000    Threshold: 1.00E-12
     Non-scf  u_k: avg # of iterations = 25.8
     Non-scf Du_k: avg # of iterations = 42.0

          Dielectric constant from finite-differences

[...]

     Computing Second order response

      iter #   1   av.it.:  13.3
      thresh= 1.000E-02 alpha_mix =  0.700 |ddv_scf|^2 =  2.009E-04

[...]

      iter #  11   av.it.:  15.6
      thresh= 2.436E-08 alpha_mix =  0.700 |ddv_scf|^2 =  3.064E-15

          Raman tensor (au^-1) in cartesian axis

           atom      1
          (       0.000000000      -0.736020210       0.000000000 )
          (      -0.736020210      -0.000000000       0.000000000 )
          (       0.000000000       0.000000000       0.000000000 )

[...]

           atom      3
          (       0.000000000       0.341894391       0.001118697 )
          (       0.341894391       0.000000000       0.000000000 )
          (       0.001118697       0.000000000       0.000000000 )

[...]

     Raman tensor (A^2)

     atom #    1    pol.  1
      0.237263354006E-15     -0.188751938842E+02      0.000000000000E+00
     -0.188751938842E+02     -0.284716024807E-14      0.000000000000E+00
      0.000000000000E+00      0.000000000000E+00      0.000000000000E+00
     atom #    1    pol.  2
     -0.188751938842E+02      0.000000000000E+00     -0.209877610659E-19
      0.000000000000E+00      0.188751938842E+02     -0.121172895011E-19
     -0.209877610659E-19     -0.121172895011E-19     -0.421475283021E-18
     atom #    1    pol.  3
      0.000000000000E+00     -0.839510442636E-19      0.233605313385E-16
     -0.839510442636E-19     -0.969383160087E-19     -0.134872090567E-16
      0.233605313385E-16     -0.134872090567E-16      0.000000000000E+00
     atom #    2    pol.  1
      0.237263354006E-15      0.876786103280E+01     -0.286889111751E-01
      0.876786103280E+01     -0.284716024807E-14      0.000000000000E+00
     -0.286889111751E-01      0.000000000000E+00     -0.730016604327E-18
     atom #    2    pol.  2
      0.876786103280E+01     -0.284716024807E-14      0.834128978927E-17
     -0.284716024807E-14     -0.876786103280E+01     -0.286889111751E-01
      0.111217197190E-16     -0.286889111751E-01      0.000000000000E+00
     atom #    2    pol.  3
     -0.101553431779E+02      0.000000000000E+00      0.000000000000E+00
      0.000000000000E+00     -0.101553431779E+02      0.000000000000E+00
      0.000000000000E+00      0.000000000000E+00     -0.640509087329E+00
     atom #    3    pol.  1
      0.474526708012E-15      0.876786103280E+01      0.286889111751E-01
      0.876786103280E+01      0.142358012403E-14      0.278042992976E-17
      0.286889111751E-01      0.278042992976E-17      0.730016604327E-18
     atom #    3    pol.  2
      0.876786103280E+01      0.284716024807E-14      0.139021496488E-16
      0.284716024807E-14     -0.876786103280E+01      0.286889111751E-01
      0.139021496488E-16      0.286889111751E-01      0.210737641511E-18
     atom #    3    pol.  3
      0.101553431779E+02      0.000000000000E+00      0.000000000000E+00
      0.000000000000E+00      0.101553431779E+02      0.000000000000E+00
      0.000000000000E+00      0.000000000000E+00      0.640509087329E+00

     Representation #   1 mode #   1

     Self-consistent Calculation

[...]

     End of self-consistent calculation

     Convergence has been achieved

     Representation #   2 modes #   2   3

[...]

     Representation #   5 mode #   7

[...]

     Representation #   6 modes #   8   9

     Self-consistent Calculation

[...]

      thresh= 1.447E-07 alpha_mix =  0.700 |ddv_scf|^2 =  6.665E-15

     End of self-consistent calculation

     Convergence has been achieved

     Number of q in the star =    1
     List of q in the star:
          1   0.000000000   0.000000000   0.000000000

          Dielectric constant in cartesian axis

          (       5.263688892       0.000000000      -0.000000000 )
          (       0.000000000       5.263688892       0.000000000 )
          (      -0.000000000       0.000000000       1.257502930 )

          Effective charges (d Force / dE) in cartesian axis

           atom      1   Mo
      Ex  (       -1.46826        0.00000       -0.00000 )
      Ey  (        0.00000       -1.46826        0.00000 )
      Ez  (        0.00000       -0.00000       -0.08479 )
           atom      2   S
      Ex  (        0.72624        0.00000        0.00000 )
      Ey  (        0.00000        0.72624       -0.00000 )
      Ez  (        0.00000       -0.00000        0.04454 )
           atom      3   S
      Ex  (        0.72624       -0.00000        0.00000 )
      Ey  (       -0.00000        0.72624        0.00000 )
      Ez  (        0.00000        0.00000        0.04454 )

     Diagonalizing the dynamical matrix

     q = (    0.000000000   0.000000000   0.000000000 )

     freq (    1) =       0.731333 [THz] =      24.394650 [cm-1]
     freq (    2) =       0.780690 [THz] =      26.041025 [cm-1]
     freq (    3) =       0.780690 [THz] =      26.041025 [cm-1]
     freq (    4) =       8.517616 [THz] =     284.117087 [cm-1]
     freq (    5) =       8.517616 [THz] =     284.117087 [cm-1]
     freq (    6) =      11.510362 [THz] =     383.944364 [cm-1]
     freq (    7) =      11.510362 [THz] =     383.944364 [cm-1]
     freq (    8) =      12.111626 [THz] =     404.000354 [cm-1]
     freq (    9) =      13.910447 [THz] =     464.002562 [cm-1]

     Mode symmetry, D_3h (-62m) point group:

     freq (   1-   1) =         24.4  [cm-1]   --> A''2            I
     freq (   2-   3) =         26.0  [cm-1]   --> E'              I+R
     freq (   4-   5) =        284.1  [cm-1]   --> E''             R
     freq (   6-   7) =        383.9  [cm-1]   --> E'              I+R
     freq (   8-   8) =        404.0  [cm-1]   --> A'_1            R
     freq (   9-   9) =        464.0  [cm-1]   --> A''2            I

     INITIALIZATION:

     DIELECTRIC CONSTANT AND EFFECTIVE CHARGES:

     RAMAN COEFFICIENTS, THIRD-ORDER CHI:

     DYNAMICAL MATRIX:

      General routines

   This run was terminated on:  16: 3:53   1Jan2023

   JOB DONE.