     Program PWSCF v.7.0 starts on  2Feb2022 at  0:19:54

     R & G space division:  proc/nbgrp/npool/nimage =       4

     Waiting for input...
     Reading input from standard input

     Current dimensions of program PWSCF are:
     Max number of different atomic species (ntypx) = 10
     Max number of k-points (npk) =  40000
     Max angular momentum in pseudopotentials (lmaxx) =  4

     IMPORTANT: XC functional enforced from input :
     Exchange-correlation= VDW-DF
                           (   1   4   4   0   1   0   0)
     Any further DFT definition will be discarded
     Please, verify this is what you really want

     Subspace diagonalization in iterative solution of the eigenvalue problem:
     a serial algorithm will be used

     Using Slab Decomposition

     bravais-lattice index     =            4
     lattice parameter (alat)  =       4.6561  a.u.
     unit-cell volume          =     709.5865 (a.u.)^3
     number of atoms/cell      =            4
     number of atomic types    =            1
     number of electrons       =        16.00
     number of Kohn-Sham states=           12
     kinetic-energy cutoff     =      60.0000  Ry
     charge density cutoff     =     240.0000  Ry
     scf convergence threshold =      1.0E-09
     mixing beta               =       0.7000
     number of iterations used =            8  plain     mixing
     energy convergence thresh.=      1.0E-05
     force convergence thresh. =      1.0E-04
     press convergence thresh. =      5.0E-02
     Exchange-correlation= VDW-DF
                           (   1   4   4   0   1   0   0)
     nstep                     =           50

     celldm(1)=   4.656107  celldm(2)=   0.000000  celldm(3)=   8.117194
     celldm(4)=   0.000000  celldm(5)=   0.000000  celldm(6)=   0.000000

     crystal axes: (cart. coord. in units of alat)
               a(1) = (   1.000000   0.000000   0.000000 )
               a(2) = (  -0.500000   0.866025   0.000000 )
               a(3) = (   0.000000   0.000000   8.117194 )

     reciprocal axes: (cart. coord. in units 2 pi/alat)
               b(1) = (  1.000000  0.577350  0.000000 )
               b(2) = (  0.000000  1.154701  0.000000 )
               b(3) = (  0.000000  0.000000  0.123195 )

     PseudoPot. # 1 for C  read from file:
     ../pseudo/C.pbe-n-rrkjus_psl.0.1.UPF
     MD5 check sum: 96a6a315177d77e6c95bf6fd3870f9e3
     Pseudo is Ultrasoft + core correction, Zval =  4.0
     Generated using &quot;atomic&quot; code by A. Dal Corso  v.6.3MaX
     Using radial grid of 1073 points,  4 beta functions with:
                l(1) =   0
                l(2) =   0
                l(3) =   1
                l(4) =   1
     Q(r) pseudized with 0 coefficients

     atomic species   valence    mass     pseudopotential
        C              4.00    12.01070     C ( 1.00)

     12 Sym. Ops., with inversion, found

   Cartesian axes

     site n.     atom                  positions (alat units)
         1           C   tau(   1) = (   0.0000000   0.0000000   3.3483426  )
         2           C   tau(   2) = (   0.0000000   0.5773503   3.3483426  )
         3           C   tau(   3) = (   0.0000000   0.0000000   4.7688516  )
         4           C   tau(   4) = (   0.5000000   0.2886751   4.7688516  )

     number of k points=    10  Marzari-Vanderbilt smearing, width (Ry)=  0.0200
                       cart. coord. in units 2pi/alat
        k(    1) = (   0.0000000   0.0000000   0.0000000), wk =   0.0312500
        k(    2) = (   0.0000000   0.1443376   0.0000000), wk =   0.1875000
        k(    3) = (   0.0000000   0.2886751   0.0000000), wk =   0.1875000
        k(    4) = (   0.0000000   0.4330127   0.0000000), wk =   0.1875000
        k(    5) = (   0.0000000  -0.5773503   0.0000000), wk =   0.0937500
        k(    6) = (   0.1250000   0.2165064   0.0000000), wk =   0.1875000
        k(    7) = (   0.1250000   0.3608439   0.0000000), wk =   0.3750000
        k(    8) = (   0.1250000   0.5051815   0.0000000), wk =   0.3750000
        k(    9) = (   0.2500000   0.4330127   0.0000000), wk =   0.1875000
        k(   10) = (   0.2500000   0.5773503   0.0000000), wk =   0.1875000

     Check: negative core charge=   -0.000004

     Initial potential from superposition of free atoms

     starting charge      15.9998, renormalised to      16.0000

     negative rho (up, down):  1.330E-04 0.000E+00

     %%%%%%%%%%%%%%%%%%%%%%%%%%%%%%%%%%%%%%%%%%%%%%%%%%%%%%%%%%%%%%%%%%%%%%%%
     %                                                                      %
     % You are using vdW-DF, which was implemented by the Thonhauser group. %
     % Please cite the following two papers that made this development      %
     % possible and the two reviews that describe the various versions:     %
     %                                                                      %
     %   T. Thonhauser et al., PRL 115, 136402 (2015).                      %
     %   T. Thonhauser et al., PRB 76, 125112 (2007).                       %
     %   K. Berland et al., Rep. Prog. Phys. 78, 066501 (2015).             %
     %   D.C. Langreth et al., J. Phys.: Condens. Matter 21, 084203 (2009). %
     %                                                                      %
     %                                                                      %
     % If you are calculating the stress with vdW-DF, please also cite:     %
     %                                                                      %
     %   R. Sabatini et al., J. Phys.: Condens. Matter 24, 424209 (2012).   %
     %                                                                      %
     %%%%%%%%%%%%%%%%%%%%%%%%%%%%%%%%%%%%%%%%%%%%%%%%%%%%%%%%%%%%%%%%%%%%%%%%

     Starting wfcs are   16 randomized atomic wfcs

     Self-consistent Calculation

     iteration #  1     ecut=    60.00 Ry     beta= 0.70
     Davidson diagonalization with overlap
     ethr =  1.00E-02,  avg # of iterations =  3.9

     Threshold (ethr) on eigenvalues was too large:
     Diagonalizing with lowered threshold

     Davidson diagonalization with overlap
     ethr =  7.73E-04,  avg # of iterations =  6.8

[...]

     total energy              =     -48.13316437 Ry
     estimated scf accuracy    <       0.40065418 Ry

[...]

     iteration #  3     ecut=    60.00 Ry     beta= 0.70
     Davidson diagonalization with overlap
     c_bands:  3 eigenvalues not converged
     c_bands:  1 eigenvalues not converged
     c_bands:  4 eigenvalues not converged
     c_bands:  1 eigenvalues not converged
     c_bands:  2 eigenvalues not converged
     c_bands:  1 eigenvalues not converged
     ethr =  1.36E-04,  avg # of iterations = 17.0

[...]

     WARNING: integrated charge=    16.00000161, expected=    16.00000000

[...]

     End of self-consistent calculation

          k = 0.0000 0.0000 0.0000 (  5565 PWs)   bands (ev):

   -20.0775 -19.9703  -8.5140  -7.7367  -3.7250  -3.7250  -3.7193  -3.7193
     2.1862   2.4790   3.2033   4.3904

[...]

     the Fermi energy is    -0.3418 ev

[...]

!    total energy              =     -48.19165475 Ry
     estimated scf accuracy    <          9.1E-10 Ry
     smearing contrib. (-TS)   =       0.00000002 Ry
     internal energy E=F+TS    =     -48.19165478 Ry

     The total energy is F=E-TS. E is the sum of the following terms:
     one-electron contribution =    -523.36363535 Ry
     hartree contribution      =     265.38762080 Ry
     xc contribution           =     -17.02168298 Ry
     ewald contribution        =     226.80604275 Ry

     convergence has been achieved in  34 iterations

[...]

     Forces acting on atoms (cartesian axes, Ry/au):

     atom    1 type  1   force =     0.00000000    0.00000000   -0.00043154
     atom    2 type  1   force =     0.00000000    0.00000000   -0.00081511
     atom    3 type  1   force =     0.00000000    0.00000000    0.00043154
     atom    4 type  1   force =     0.00000000    0.00000000    0.00081511

     Total force =     0.001304     Total SCF correction =     0.000096

     Computing stress (Cartesian axis) and pressure

     negative rho (up, down):  1.783E-04 0.000E+00
          total   stress  (Ry/bohr**3)                   (kbar)     P=       10.98
   0.00010827   0.00000000  -0.00000000           15.93        0.00       -0.00
   0.00000000   0.00010827  -0.00000000            0.00       15.93       -0.00
   0.00000000   0.00000000   0.00000740            0.00        0.00        1.09

     BFGS Geometry Optimization
     Energy error            =      0.0E+00 Ry
     Gradient error          =      8.2E-04 Ry/Bohr
     Cell gradient error     =      1.6E+01 kbar

     number of scf cycles    =   1
     number of bfgs steps    =   0

     enthalpy           new  =     -48.1916547534 Ry

     new trust radius        =       0.0144200136 bohr
     new conv_thr            =       0.0000000010 Ry

     new unit-cell volume =    713.43292 a.u.^3 (   105.71985 Ang^3 )
     density =      0.75461 g/cm^3

CELL_PARAMETERS (alat=  4.65610675)
   1.002706656   0.000000000   0.000000000
  -0.501353328   0.868369436   0.000000000
   0.000000000   0.000000000   8.117194158

ATOMIC_POSITIONS (crystal)
C             0.0000000000        0.0000000000        0.4124885820
C             0.3333333330        0.6666666660        0.4124784331
C             0.0000000000        0.0000000000        0.5875114180
C             0.6666666660        0.3333333330        0.5875215669

     Writing config-only to output data dir ../tmp/gr.save/
     NEW-OLD atomic charge density approx. for the potential

[...]

     negative rho (up, down):  1.696E-04 0.000E+00
     extrapolated charge   16.08626, renormalised to   16.00000

[...]

          k =-0.0000 0.1439 0.0000 (  5582 PWs)   bands (ev):

[...]

     Total force =     0.001206     Total SCF correction =     0.000130
     SCF correction compared to forces is large: reduce conv_thr to get better values

[...]

     Energy error            =      2.7E-04 Ry
     Gradient error          =      6.7E-04 Ry/Bohr
     Cell gradient error     =      4.8E+00 kbar

[...]

     enthalpy           old  =     -48.1916547534 Ry
     enthalpy           new  =     -48.1919263273 Ry

     CASE: enthalpy          _new < enthalpy          _old

[...]

     WARNING: bfgs curvature condition failed, Theta= 0.865
     new trust radius        =       0.0007003300 bohr
     new conv_thr            =            1.0E-11 Ry

[...]

     number of scf cycles    =  17
     number of bfgs steps    =  16

     enthalpy           old  =     -48.1920666699 Ry
     enthalpy           new  =     -48.1920666705 Ry

     CASE: enthalpy          _new < enthalpy          _old

     new trust radius        =       0.0004265412 bohr
     new conv_thr            =            1.0E-11 Ry

     new unit-cell volume =    715.19227 a.u.^3 (   105.98056 Ang^3 )
     density =      0.75275 g/cm^3

[...]

ATOMIC_POSITIONS (crystal)
C             0.0000000000        0.0000000000        0.4096226762
C             0.3333333330        0.6666666660        0.4096124368
C            -0.0000000000       -0.0000000000        0.5903773238
C             0.6666666660        0.3333333330        0.5903875632

     Writing config-only to output data dir ../tmp/gr.save/
     NEW-OLD atomic charge density approx. for the potential

[...]

     negative rho (up, down):  1.848E-04 0.000E+00
     extrapolated charge   15.99969, renormalised to   16.00000

[...]

     Threshold (ethr) on eigenvalues was too large:
     Diagonalizing with lowered threshold

     Davidson diagonalization with overlap
     ethr =  1.97E-10,  avg # of iterations = 11.4

[...]

     Total force =     0.000004     Total SCF correction =     0.000013
     SCF correction compared to forces is large: reduce conv_thr to get better values

[...]

     Energy error            =      2.5E-08 Ry
     Gradient error          =      2.7E-06 Ry/Bohr
     Cell gradient error     =      3.3E-02 kbar

     bfgs converged in  18 scf cycles and  17 bfgs steps
     (criteria: energy <  1.0E-05 Ry, force <  1.0E-04Ry/Bohr, cell <  5.0E-02kbar)

     End of BFGS Geometry Optimization

     Final enthalpy           =     -48.1920666454 Ry

     File ../tmp/gr.bfgs deleted, as requested
Begin final coordinates
     new unit-cell volume =    715.19227 a.u.^3 (   105.98056 Ang^3 )
     density =      0.75275 g/cm^3

CELL_PARAMETERS (alat=  4.65610675)
   1.003942245   0.000000000   0.000000000
  -0.501971123   0.869439488   0.000000000
   0.000000000   0.000000000   8.117194158

ATOMIC_POSITIONS (crystal)
C             0.0000000000        0.0000000000        0.4096226762
C             0.3333333330        0.6666666660        0.4096124368
C            -0.0000000000       -0.0000000000        0.5903773238
C             0.6666666660        0.3333333330        0.5903875632
End final coordinates

     Writing config-only to output data dir ../tmp/gr.save/

     Final scf calculation at the relaxed structure.
     The G-vectors are recalculated for the final unit cell
     Results may differ from those at the preceding step.

     Using Slab Decomposition

     bravais-lattice index     =            4
     lattice parameter (alat)  =       4.6561  a.u.
     unit-cell volume          =     715.1923 (a.u.)^3
     number of atoms/cell      =            4
     number of atomic types    =            1
     number of electrons       =        16.00
     number of Kohn-Sham states=           12
     kinetic-energy cutoff     =      60.0000  Ry
     charge density cutoff     =     240.0000  Ry
     scf convergence threshold =      1.0E-11
     mixing beta               =       0.7000
     number of iterations used =            8  plain     mixing
     press convergence thresh. =      5.0E-02
     Exchange-correlation= VDW-DF
                           (   1   4   4   0   1   0   0)

     celldm(1)=   4.656107  celldm(2)=   0.000000  celldm(3)=   8.117194
     celldm(4)=   0.000000  celldm(5)=   0.000000  celldm(6)=   0.000000

     crystal axes: (cart. coord. in units of alat)
               a(1) = (   1.003942   0.000000   0.000000 )
               a(2) = (  -0.501971   0.869439   0.000000 )
               a(3) = (   0.000000   0.000000   8.117194 )

     reciprocal axes: (cart. coord. in units 2 pi/alat)
               b(1) = (  0.996073  0.575083  0.000000 )
               b(2) = ( -0.000000  1.150166  0.000000 )
               b(3) = (  0.000000  0.000000  0.123195 )

     PseudoPot. # 1 for C  read from file:
     ../pseudo/C.pbe-n-rrkjus_psl.0.1.UPF
     MD5 check sum: 96a6a315177d77e6c95bf6fd3870f9e3
     Pseudo is Ultrasoft + core correction, Zval =  4.0
     Generated using &quot;atomic&quot; code by A. Dal Corso  v.6.3MaX
     Using radial grid of 1073 points,  4 beta functions with:
                l(1) =   0
                l(2) =   0
                l(3) =   1
                l(4) =   1
     Q(r) pseudized with 0 coefficients

     atomic species   valence    mass     pseudopotential
        C              4.00    12.01070     C ( 1.00)

     12 Sym. Ops., with inversion, found

   Cartesian axes

     site n.     atom                  positions (alat units)
         1           C   tau(   1) = (  -0.0000000   0.0000000   3.3249868  )
         2           C   tau(   2) = (   0.0000000   0.5796263   3.3249037  )
         3           C   tau(   3) = (  -0.0000000  -0.0000000   4.7922074  )
         4           C   tau(   4) = (   0.5019711   0.2898132   4.7922905  )

     number of k points=    10  Marzari-Vanderbilt smearing, width (Ry)=  0.0200
                       cart. coord. in units 2pi/alat
        k(    1) = (   0.0000000   0.0000000   0.0000000), wk =   0.0312500
        k(    2) = (  -0.0000000   0.1437708   0.0000000), wk =   0.1875000
        k(    3) = (  -0.0000000   0.2875416   0.0000000), wk =   0.1875000
        k(    4) = (  -0.0000000   0.4313124   0.0000000), wk =   0.1875000
        k(    5) = (   0.0000000  -0.5750832   0.0000000), wk =   0.0937500
        k(    6) = (   0.1245092   0.2156562   0.0000000), wk =   0.1875000
        k(    7) = (   0.1245092   0.3594270   0.0000000), wk =   0.3750000
        k(    8) = (   0.1245092   0.5031978   0.0000000), wk =   0.3750000
        k(    9) = (   0.2490183   0.4313124   0.0000000), wk =   0.1875000
        k(   10) = (   0.2490183   0.5750832   0.0000000), wk =   0.1875000

     Check: negative core charge=   -0.000003

     Initial potential from superposition of free atoms

     starting charge      15.9998, renormalised to      16.0000

     negative rho (up, down):  1.308E-04 0.000E+00
     Starting wfcs are   16 randomized atomic wfcs

     Self-consistent Calculation

[...]

     iteration # 29     ecut=    60.00 Ry     beta= 0.70
     Davidson diagonalization with overlap
     c_bands:  1 eigenvalues not converged
     ethr =  8.47E-12,  avg # of iterations = 14.9

[...]

     total energy              =     -48.19209324 Ry
     estimated scf accuracy    <          4.5E-11 Ry

     iteration # 34     ecut=    60.00 Ry     beta= 0.70
     Davidson diagonalization with overlap
     ethr =  2.80E-13,  avg # of iterations =  3.7

[...]

     End of self-consistent calculation

[...]

          k =-0.0000 0.4313 0.0000 (  5628 PWs)   bands (ev):

[...]

          k = 0.2490 0.5751 0.0000 (  5598 PWs)   bands (ev):

   -13.9280 -13.9011 -13.0018 -12.9913 -10.2711 -10.2463  -1.7207  -1.4991
     0.3506   0.3849  10.2246  10.2918

     the Fermi energy is    -0.3980 ev

     WARNING: integrated charge=    16.00000167, expected=    16.00000000

!    total energy              =     -48.19209324 Ry
     estimated scf accuracy    <          3.9E-12 Ry
     smearing contrib. (-TS)   =       0.00000002 Ry
     internal energy E=F+TS    =     -48.19209326 Ry

     The total energy is F=E-TS. E is the sum of the following terms:
     one-electron contribution =    -507.28082008 Ry
     hartree contribution      =     257.32030735 Ry
     xc contribution           =     -16.98494555 Ry
     ewald contribution        =     218.75336501 Ry

     convergence has been achieved in  34 iterations

     negative rho (up, down):  1.469E-04 0.000E+00

     Forces acting on atoms (cartesian axes, Ry/au):

     atom    1 type  1   force =    -0.00000000   -0.00000000   -0.00001241
     atom    2 type  1   force =    -0.00000000    0.00000000   -0.00003802
     atom    3 type  1   force =    -0.00000000    0.00000000    0.00001241
     atom    4 type  1   force =    -0.00000000    0.00000000    0.00003802

     Total force =     0.000057     Total SCF correction =     0.000006

     Computing stress (Cartesian axis) and pressure

     negative rho (up, down):  1.469E-04 0.000E+00
          total   stress  (Ry/bohr**3)                   (kbar)     P=       -0.17
  -0.00000014   0.00000000   0.00000000           -0.02        0.00        0.00
   0.00000000  -0.00000014   0.00000000            0.00       -0.02        0.00
   0.00000000   0.00000000  -0.00000327            0.00        0.00       -0.48

     Writing all to output data dir ../tmp/gr.save/

     General routines

     Parallel routines

   This run was terminated on:   0:21:57   2Feb2022

   JOB DONE.