     Program PWSCF v.7.0 starts on  2Feb2022 at  0:31:14

     R & G space division:  proc/nbgrp/npool/nimage =       4

     Waiting for input...
     Reading input from standard input

     Current dimensions of program PWSCF are:
     Max number of different atomic species (ntypx) = 10
     Max number of k-points (npk) =  40000
     Max angular momentum in pseudopotentials (lmaxx) =  4

     IMPORTANT: XC functional enforced from input :
     Exchange-correlation= RVV10
                           (   1   4  13   4  26   0   0)
     Any further DFT definition will be discarded
     Please, verify this is what you really want

     Subspace diagonalization in iterative solution of the eigenvalue problem:
     a serial algorithm will be used

     Using Slab Decomposition

     bravais-lattice index     =            4
     lattice parameter (alat)  =       4.6561  a.u.
     unit-cell volume          =     709.5865 (a.u.)^3
     number of atoms/cell      =            4
     number of atomic types    =            1
     number of electrons       =        16.00
     number of Kohn-Sham states=           12
     kinetic-energy cutoff     =      60.0000  Ry
     charge density cutoff     =     240.0000  Ry
     scf convergence threshold =      1.0E-09
     mixing beta               =       0.7000
     number of iterations used =            8  plain     mixing
     energy convergence thresh.=      1.0E-05
     force convergence thresh. =      1.0E-04
     press convergence thresh. =      5.0E-02
     Exchange-correlation= RVV10
                           (   1   4  13   4  26   0   0)
     nstep                     =           50

     celldm(1)=   4.656107  celldm(2)=   0.000000  celldm(3)=   8.117194
     celldm(4)=   0.000000  celldm(5)=   0.000000  celldm(6)=   0.000000

     crystal axes: (cart. coord. in units of alat)
               a(1) = (   1.000000   0.000000   0.000000 )
               a(2) = (  -0.500000   0.866025   0.000000 )
               a(3) = (   0.000000   0.000000   8.117194 )

     reciprocal axes: (cart. coord. in units 2 pi/alat)
               b(1) = (  1.000000  0.577350  0.000000 )
               b(2) = (  0.000000  1.154701  0.000000 )
               b(3) = (  0.000000  0.000000  0.123195 )

     PseudoPot. # 1 for C  read from file:
     ../pseudo/C.pbe-n-rrkjus_psl.0.1.UPF
     MD5 check sum: 96a6a315177d77e6c95bf6fd3870f9e3
     Pseudo is Ultrasoft + core correction, Zval =  4.0
     Generated using &quot;atomic&quot; code by A. Dal Corso  v.6.3MaX
     Using radial grid of 1073 points,  4 beta functions with:
                l(1) =   0
                l(2) =   0
                l(3) =   1
                l(4) =   1
     Q(r) pseudized with 0 coefficients

     atomic species   valence    mass     pseudopotential
        C              4.00    12.01070     C ( 1.00)

     12 Sym. Ops., with inversion, found

   Cartesian axes

     site n.     atom                  positions (alat units)
         1           C   tau(   1) = (   0.0000000   0.0000000   3.3483426  )
         2           C   tau(   2) = (   0.0000000   0.5773503   3.3483426  )
         3           C   tau(   3) = (   0.0000000   0.0000000   4.7688516  )
         4           C   tau(   4) = (   0.5000000   0.2886751   4.7688516  )

     number of k points=    10  Marzari-Vanderbilt smearing, width (Ry)=  0.0200
                       cart. coord. in units 2pi/alat
        k(    1) = (   0.0000000   0.0000000   0.0000000), wk =   0.0312500
        k(    2) = (   0.0000000   0.1443376   0.0000000), wk =   0.1875000
        k(    3) = (   0.0000000   0.2886751   0.0000000), wk =   0.1875000
        k(    4) = (   0.0000000   0.4330127   0.0000000), wk =   0.1875000
        k(    5) = (   0.0000000  -0.5773503   0.0000000), wk =   0.0937500
        k(    6) = (   0.1250000   0.2165064   0.0000000), wk =   0.1875000
        k(    7) = (   0.1250000   0.3608439   0.0000000), wk =   0.3750000
        k(    8) = (   0.1250000   0.5051815   0.0000000), wk =   0.3750000
        k(    9) = (   0.2500000   0.4330127   0.0000000), wk =   0.1875000
        k(   10) = (   0.2500000   0.5773503   0.0000000), wk =   0.1875000

     Check: negative core charge=   -0.000004

     Initial potential from superposition of free atoms

     starting charge      15.9998, renormalised to      16.0000

     negative rho (up, down):  1.330E-04 0.000E+00

Carrying out rVV10 run using the following parameters:
Nqs =      20    Nr_points =    1024   r_max =   100.000
b_value =  6.30000    beta =  0.00901
     q_mesh =  0.00010000  0.00030000  0.00058939  0.00100810
               0.00161396  0.00249058  0.00375900  0.00559430
               0.00824984  0.01209221  0.01765183  0.02569619
               0.03733578  0.05417739  0.07854596  0.11380545
               0.16482331  0.23864234  0.34545298  0.50000000

Gradients computed in Reciprocal space

     Starting wfcs are   16 randomized atomic wfcs

     Self-consistent Calculation

     iteration #  1     ecut=    60.00 Ry     beta= 0.70
     Davidson diagonalization with overlap
     ethr =  1.00E-02,  avg # of iterations =  3.9

     Threshold (ethr) on eigenvalues was too large:
     Diagonalizing with lowered threshold

     Davidson diagonalization with overlap
     ethr =  7.24E-04,  avg # of iterations =  7.2

[...]

     total energy              =     -47.84878153 Ry
     estimated scf accuracy    <       0.37377208 Ry

[...]

     iteration #  3     ecut=    60.00 Ry     beta= 0.70
     Davidson diagonalization with overlap
     c_bands:  4 eigenvalues not converged
     c_bands:  4 eigenvalues not converged
     c_bands:  4 eigenvalues not converged
     c_bands:  1 eigenvalues not converged
     c_bands:  2 eigenvalues not converged
     c_bands:  2 eigenvalues not converged
     ethr =  1.31E-04,  avg # of iterations = 16.9

[...]

     WARNING: integrated charge=    16.00000169, expected=    16.00000000

[...]

     End of self-consistent calculation

          k = 0.0000 0.0000 0.0000 (  5565 PWs)   bands (ev):

   -20.0211 -19.9089  -8.5003  -7.6685  -3.5829  -3.5829  -3.5770  -3.5770
     2.2573   2.6378   2.9608   4.2618

[...]

     the Fermi energy is    -0.2441 ev

[...]

!    total energy              =     -47.90263147 Ry
     estimated scf accuracy    <          9.3E-10 Ry
     smearing contrib. (-TS)   =       0.00000003 Ry
     internal energy E=F+TS    =     -47.90263149 Ry

     The total energy is F=E-TS. E is the sum of the following terms:
     one-electron contribution =    -523.27011991 Ry
     hartree contribution      =     265.25989949 Ry
     xc contribution           =     -16.69845383 Ry
     ewald contribution        =     226.80604275 Ry

     convergence has been achieved in  34 iterations

[...]

     Forces acting on atoms (cartesian axes, Ry/au):

     atom    1 type  1   force =     0.00000000    0.00000000    0.00069257
     atom    2 type  1   force =     0.00000000    0.00000000    0.00036497
     atom    3 type  1   force =    -0.00000000   -0.00000000   -0.00069257
     atom    4 type  1   force =     0.00000000    0.00000000   -0.00036497

     Total force =     0.001107     Total SCF correction =     0.000120
     SCF correction compared to forces is large: reduce conv_thr to get better values

     Computing stress (Cartesian axis) and pressure

     negative rho (up, down):  1.785E-04 0.000E+00
          total   stress  (Ry/bohr**3)                   (kbar)     P=       11.67
   0.00012707   0.00000000   0.00000000           18.69        0.00        0.00
   0.00000000   0.00012707   0.00000000            0.00       18.69        0.00
   0.00000000   0.00000000  -0.00001618            0.00        0.00       -2.38

     BFGS Geometry Optimization
     Energy error            =      0.0E+00 Ry
     Gradient error          =      6.9E-04 Ry/Bohr
     Cell gradient error     =      1.9E+01 kbar

     number of scf cycles    =   1
     number of bfgs steps    =   0

     enthalpy           new  =     -47.9026314680 Ry

     new trust radius        =       0.0169249020 bohr
     new conv_thr            =       0.0000000010 Ry

     new unit-cell volume =    714.10214 a.u.^3 (   105.81902 Ang^3 )
     density =      0.75390 g/cm^3

CELL_PARAMETERS (alat=  4.65610675)
   1.003176826   0.000000000   0.000000000
  -0.501588413   0.868776616   0.000000000
   0.000000000   0.000000000   8.117194158

ATOMIC_POSITIONS (crystal)
C             0.0000000000        0.0000000000        0.4125183247
C             0.3333333330        0.6666666660        0.4125096567
C            -0.0000000000       -0.0000000000        0.5874816753
C             0.6666666660        0.3333333330        0.5874903433

     Writing config-only to output data dir ../tmp/gr.save/
     NEW-OLD atomic charge density approx. for the potential

[...]

     negative rho (up, down):  1.685E-04 0.000E+00
     extrapolated charge   16.10118, renormalised to   16.00000

[...]

     Total force =     0.001061     Total SCF correction =     0.000049

[...]

     Energy error            =      3.7E-04 Ry
     Gradient error          =      5.9E-04 Ry/Bohr
     Cell gradient error     =      5.5E+00 kbar

[...]

     enthalpy           old  =     -47.9026314680 Ry
     enthalpy           new  =     -47.9030046789 Ry

     CASE: enthalpy          _new < enthalpy          _old

[...]

          k =-0.0000-0.5748 0.0000 (  5604 PWs)   bands (ev):

[...]

     WARNING: bfgs curvature condition failed, Theta= 0.858
     new trust radius        =       0.0006031056 bohr
     new conv_thr            =            1.0E-11 Ry

[...]

     Total force =     0.000052     Total SCF correction =     0.000003

[...]

     number of scf cycles    =  17
     number of bfgs steps    =  16

     enthalpy           old  =     -47.9031621482 Ry
     enthalpy           new  =     -47.9031622817 Ry

     CASE: enthalpy          _new < enthalpy          _old

     new trust radius        =       0.0003758418 bohr
     new conv_thr            =            1.0E-11 Ry

     new unit-cell volume =    715.94628 a.u.^3 (   106.09229 Ang^3 )
     density =      0.75196 g/cm^3

[...]

ATOMIC_POSITIONS (crystal)
C            -0.0000000000       -0.0000000000        0.4153675173
C             0.3333333330        0.6666666660        0.4153463592
C            -0.0000000000        0.0000000000        0.5846324827
C             0.6666666660        0.3333333330        0.5846536408

     Writing config-only to output data dir ../tmp/gr.save/
     NEW-OLD atomic charge density approx. for the potential

[...]

     negative rho (up, down):  1.680E-04 0.000E+00
     extrapolated charge   15.99786, renormalised to   16.00000

[...]

     Threshold (ethr) on eigenvalues was too large:
     Diagonalizing with lowered threshold

     Davidson diagonalization with overlap
     ethr =  3.07E-08,  avg # of iterations =  2.2

[...]

     Energy error            =      4.5E-08 Ry
     Gradient error          =      8.5E-06 Ry/Bohr
     Cell gradient error     =      5.0E-03 kbar

     bfgs converged in  18 scf cycles and  17 bfgs steps
     (criteria: energy <  1.0E-05 Ry, force <  1.0E-04Ry/Bohr, cell <  5.0E-02kbar)

     End of BFGS Geometry Optimization

     Final enthalpy           =     -47.9031623267 Ry

     File ../tmp/gr.bfgs deleted, as requested
Begin final coordinates
     new unit-cell volume =    715.94628 a.u.^3 (   106.09229 Ang^3 )
     density =      0.75196 g/cm^3

CELL_PARAMETERS (alat=  4.65610675)
   1.004471322  -0.000000000   0.000000000
  -0.502235661   0.869897682   0.000000000
   0.000000000   0.000000000   8.117194158

ATOMIC_POSITIONS (crystal)
C            -0.0000000000       -0.0000000000        0.4153675173
C             0.3333333330        0.6666666660        0.4153463592
C            -0.0000000000        0.0000000000        0.5846324827
C             0.6666666660        0.3333333330        0.5846536408
End final coordinates

     Writing config-only to output data dir ../tmp/gr.save/

     Final scf calculation at the relaxed structure.
     The G-vectors are recalculated for the final unit cell
     Results may differ from those at the preceding step.

     Using Slab Decomposition

     bravais-lattice index     =            4
     lattice parameter (alat)  =       4.6561  a.u.
     unit-cell volume          =     715.9463 (a.u.)^3
     number of atoms/cell      =            4
     number of atomic types    =            1
     number of electrons       =        16.00
     number of Kohn-Sham states=           12
     kinetic-energy cutoff     =      60.0000  Ry
     charge density cutoff     =     240.0000  Ry
     scf convergence threshold =      1.0E-11
     mixing beta               =       0.7000
     number of iterations used =            8  plain     mixing
     press convergence thresh. =      5.0E-02
     Exchange-correlation= RVV10
                           (   1   4  13   4  26   0   0)

     celldm(1)=   4.656107  celldm(2)=   0.000000  celldm(3)=   8.117194
     celldm(4)=   0.000000  celldm(5)=   0.000000  celldm(6)=   0.000000

     crystal axes: (cart. coord. in units of alat)
               a(1) = (   1.004471  -0.000000   0.000000 )
               a(2) = (  -0.502236   0.869898   0.000000 )
               a(3) = (   0.000000   0.000000   8.117194 )

     reciprocal axes: (cart. coord. in units 2 pi/alat)
               b(1) = (  0.995549  0.574780  0.000000 )
               b(2) = (  0.000000  1.149560  0.000000 )
               b(3) = (  0.000000  0.000000  0.123195 )

     PseudoPot. # 1 for C  read from file:
     ../pseudo/C.pbe-n-rrkjus_psl.0.1.UPF
     MD5 check sum: 96a6a315177d77e6c95bf6fd3870f9e3
     Pseudo is Ultrasoft + core correction, Zval =  4.0
     Generated using &quot;atomic&quot; code by A. Dal Corso  v.6.3MaX
     Using radial grid of 1073 points,  4 beta functions with:
                l(1) =   0
                l(2) =   0
                l(3) =   1
                l(4) =   1
     Q(r) pseudized with 0 coefficients

     atomic species   valence    mass     pseudopotential
        C              4.00    12.01070     C ( 1.00)

     12 Sym. Ops., with inversion, found

   Cartesian axes

     site n.     atom                  positions (alat units)
         1           C   tau(   1) = (  -0.0000000  -0.0000000   3.3716188  )
         2           C   tau(   2) = (  -0.0000000   0.5799318   3.3714470  )
         3           C   tau(   3) = (  -0.0000000   0.0000000   4.7455754  )
         4           C   tau(   4) = (   0.5022357   0.2899659   4.7457471  )

     number of k points=    10  Marzari-Vanderbilt smearing, width (Ry)=  0.0200
                       cart. coord. in units 2pi/alat
        k(    1) = (   0.0000000   0.0000000   0.0000000), wk =   0.0312500
        k(    2) = (   0.0000000   0.1436951   0.0000000), wk =   0.1875000
        k(    3) = (   0.0000000   0.2873901   0.0000000), wk =   0.1875000
        k(    4) = (   0.0000000   0.4310852   0.0000000), wk =   0.1875000
        k(    5) = (  -0.0000000  -0.5747802   0.0000000), wk =   0.0937500
        k(    6) = (   0.1244436   0.2155426   0.0000000), wk =   0.1875000
        k(    7) = (   0.1244436   0.3592377   0.0000000), wk =   0.3750000
        k(    8) = (   0.1244436   0.5029327   0.0000000), wk =   0.3750000
        k(    9) = (   0.2488871   0.4310852   0.0000000), wk =   0.1875000
        k(   10) = (   0.2488871   0.5747802   0.0000000), wk =   0.1875000

     Check: negative core charge=   -0.000003

     Initial potential from superposition of free atoms

     starting charge      15.9998, renormalised to      16.0000

     negative rho (up, down):  1.340E-04 0.000E+00
     Starting wfcs are   16 randomized atomic wfcs

     Self-consistent Calculation

[...]

     iteration # 23     ecut=    60.00 Ry     beta= 0.70
     Davidson diagonalization with overlap
     c_bands:  1 eigenvalues not converged
     ethr =  3.09E-06,  avg # of iterations =  6.5

[...]

     total energy              =     -47.90318330 Ry
     estimated scf accuracy    <          1.1E-11 Ry

     iteration # 48     ecut=    60.00 Ry     beta= 0.70
     Davidson diagonalization with overlap
     ethr =  1.00E-13,  avg # of iterations =  2.0

[...]

     End of self-consistent calculation

[...]

          k =-0.0000-0.5748 0.0000 (  5652 PWs)   bands (ev):

[...]

          k = 0.2489 0.5748 0.0000 (  5602 PWs)   bands (ev):

   -13.8524 -13.8032 -12.9312 -12.9108 -10.2170 -10.1694  -1.7191  -1.3788
     0.4207   0.4822  10.0260  10.1275

     the Fermi energy is    -0.3003 ev

     WARNING: integrated charge=    16.00000286, expected=    16.00000000

!    total energy              =     -47.90318330 Ry
     estimated scf accuracy    <          3.8E-12 Ry
     smearing contrib. (-TS)   =       0.00000004 Ry
     internal energy E=F+TS    =     -47.90318334 Ry

     The total energy is F=E-TS. E is the sum of the following terms:
     one-electron contribution =    -530.57182262 Ry
     hartree contribution      =     268.87892275 Ry
     xc contribution           =     -16.66259189 Ry
     ewald contribution        =     230.45230842 Ry

     convergence has been achieved in  48 iterations

     negative rho (up, down):  1.649E-04 0.000E+00

     Forces acting on atoms (cartesian axes, Ry/au):

     atom    1 type  1   force =     0.00000000    0.00000000   -0.00000179
     atom    2 type  1   force =     0.00000000    0.00000000   -0.00000778
     atom    3 type  1   force =    -0.00000000   -0.00000000    0.00000179
     atom    4 type  1   force =    -0.00000000   -0.00000000    0.00000778

     Total force =     0.000011     Total SCF correction =     0.000007
     SCF correction compared to forces is large: reduce conv_thr to get better values

     Computing stress (Cartesian axis) and pressure

     negative rho (up, down):  1.649E-04 0.000E+00
          total   stress  (Ry/bohr**3)                   (kbar)     P=       -0.11
   0.00000021   0.00000000  -0.00000000            0.03        0.00       -0.00
   0.00000000   0.00000021  -0.00000000            0.00        0.03       -0.00
   0.00000000   0.00000000  -0.00000274            0.00        0.00       -0.40

     Writing all to output data dir ../tmp/gr.save/

     General routines

     Parallel routines

   This run was terminated on:   0:33:24   2Feb2022

   JOB DONE.