     Program PWSCF v.7.0 starts on  2Feb2022 at  0:29: 5

     R & G space division:  proc/nbgrp/npool/nimage =       4

     Waiting for input...
     Reading input from standard input

     Current dimensions of program PWSCF are:
     Max number of different atomic species (ntypx) = 10
     Max number of k-points (npk) =  40000
     Max angular momentum in pseudopotentials (lmaxx) =  4

     IMPORTANT: XC functional enforced from input :
     Exchange-correlation= VDW-DF-C6
                           (   1   4  26   0   5   0   0)
     Any further DFT definition will be discarded
     Please, verify this is what you really want

     Subspace diagonalization in iterative solution of the eigenvalue problem:
     a serial algorithm will be used

     Using Slab Decomposition

     bravais-lattice index     =            4
     lattice parameter (alat)  =       4.6561  a.u.
     unit-cell volume          =     709.5865 (a.u.)^3
     number of atoms/cell      =            4
     number of atomic types    =            1
     number of electrons       =        16.00
     number of Kohn-Sham states=           12
     kinetic-energy cutoff     =      60.0000  Ry
     charge density cutoff     =     240.0000  Ry
     scf convergence threshold =      1.0E-09
     mixing beta               =       0.7000
     number of iterations used =            8  plain     mixing
     energy convergence thresh.=      1.0E-05
     force convergence thresh. =      1.0E-04
     press convergence thresh. =      5.0E-02
     Exchange-correlation= VDW-DF-C6
                           (   1   4  26   0   5   0   0)
     nstep                     =           50

     celldm(1)=   4.656107  celldm(2)=   0.000000  celldm(3)=   8.117194
     celldm(4)=   0.000000  celldm(5)=   0.000000  celldm(6)=   0.000000

     crystal axes: (cart. coord. in units of alat)
               a(1) = (   1.000000   0.000000   0.000000 )
               a(2) = (  -0.500000   0.866025   0.000000 )
               a(3) = (   0.000000   0.000000   8.117194 )

     reciprocal axes: (cart. coord. in units 2 pi/alat)
               b(1) = (  1.000000  0.577350  0.000000 )
               b(2) = (  0.000000  1.154701  0.000000 )
               b(3) = (  0.000000  0.000000  0.123195 )

     PseudoPot. # 1 for C  read from file:
     ../pseudo/C.pbe-n-rrkjus_psl.0.1.UPF
     MD5 check sum: 96a6a315177d77e6c95bf6fd3870f9e3
     Pseudo is Ultrasoft + core correction, Zval =  4.0
     Generated using &quot;atomic&quot; code by A. Dal Corso  v.6.3MaX
     Using radial grid of 1073 points,  4 beta functions with:
                l(1) =   0
                l(2) =   0
                l(3) =   1
                l(4) =   1
     Q(r) pseudized with 0 coefficients

     atomic species   valence    mass     pseudopotential
        C              4.00    12.01070     C ( 1.00)

     12 Sym. Ops., with inversion, found

   Cartesian axes

     site n.     atom                  positions (alat units)
         1           C   tau(   1) = (   0.0000000   0.0000000   3.3483426  )
         2           C   tau(   2) = (   0.0000000   0.5773503   3.3483426  )
         3           C   tau(   3) = (   0.0000000   0.0000000   4.7688516  )
         4           C   tau(   4) = (   0.5000000   0.2886751   4.7688516  )

     number of k points=    10  Marzari-Vanderbilt smearing, width (Ry)=  0.0200
                       cart. coord. in units 2pi/alat
        k(    1) = (   0.0000000   0.0000000   0.0000000), wk =   0.0312500
        k(    2) = (   0.0000000   0.1443376   0.0000000), wk =   0.1875000
        k(    3) = (   0.0000000   0.2886751   0.0000000), wk =   0.1875000
        k(    4) = (   0.0000000   0.4330127   0.0000000), wk =   0.1875000
        k(    5) = (   0.0000000  -0.5773503   0.0000000), wk =   0.0937500
        k(    6) = (   0.1250000   0.2165064   0.0000000), wk =   0.1875000
        k(    7) = (   0.1250000   0.3608439   0.0000000), wk =   0.3750000
        k(    8) = (   0.1250000   0.5051815   0.0000000), wk =   0.3750000
        k(    9) = (   0.2500000   0.4330127   0.0000000), wk =   0.1875000
        k(   10) = (   0.2500000   0.5773503   0.0000000), wk =   0.1875000

     Check: negative core charge=   -0.000004

     Initial potential from superposition of free atoms

     starting charge      15.9998, renormalised to      16.0000

     negative rho (up, down):  1.330E-04 0.000E+00

     %%%%%%%%%%%%%%%%%%%%%%%%%%%%%%%%%%%%%%%%%%%%%%%%%%%%%%%%%%%%%%%%%%%%%%%%
     %                                                                      %
     % You are using vdW-DF, which was implemented by the Thonhauser group. %
     % Please cite the following two papers that made this development      %
     % possible and the two reviews that describe the various versions:     %
     %                                                                      %
     %   T. Thonhauser et al., PRL 115, 136402 (2015).                      %
     %   T. Thonhauser et al., PRB 76, 125112 (2007).                       %
     %   K. Berland et al., Rep. Prog. Phys. 78, 066501 (2015).             %
     %   D.C. Langreth et al., J. Phys.: Condens. Matter 21, 084203 (2009). %
     %                                                                      %
     %                                                                      %
     % If you are calculating the stress with vdW-DF, please also cite:     %
     %                                                                      %
     %   R. Sabatini et al., J. Phys.: Condens. Matter 24, 424209 (2012).   %
     %                                                                      %
     %%%%%%%%%%%%%%%%%%%%%%%%%%%%%%%%%%%%%%%%%%%%%%%%%%%%%%%%%%%%%%%%%%%%%%%%

     Starting wfcs are   16 randomized atomic wfcs

     Self-consistent Calculation

     iteration #  1     ecut=    60.00 Ry     beta= 0.70
     Davidson diagonalization with overlap
     ethr =  1.00E-02,  avg # of iterations =  3.9

     Threshold (ethr) on eigenvalues was too large:
     Diagonalizing with lowered threshold

     Davidson diagonalization with overlap
     ethr =  7.11E-04,  avg # of iterations =  7.4

[...]

     total energy              =     -47.83312072 Ry
     estimated scf accuracy    <       0.36441632 Ry

[...]

     iteration #  3     ecut=    60.00 Ry     beta= 0.70
     Davidson diagonalization with overlap
     c_bands:  2 eigenvalues not converged
     c_bands:  4 eigenvalues not converged
     c_bands:  3 eigenvalues not converged
     c_bands:  3 eigenvalues not converged
     c_bands:  2 eigenvalues not converged
     c_bands:  2 eigenvalues not converged
     ethr =  1.28E-04,  avg # of iterations = 16.8

[...]

     WARNING: integrated charge=    16.00000178, expected=    16.00000000

[...]

     End of self-consistent calculation

          k = 0.0000 0.0000 0.0000 (  5565 PWs)   bands (ev):

   -20.1472 -20.0357  -8.6433  -7.8261  -3.6872  -3.6872  -3.6813  -3.6813
     2.0931   2.4323   2.8787   4.1301

[...]

     the Fermi energy is    -0.3964 ev

[...]

!    total energy              =     -47.88499001 Ry
     estimated scf accuracy    <          4.4E-10 Ry
     smearing contrib. (-TS)   =       0.00000003 Ry
     internal energy E=F+TS    =     -47.88499004 Ry

     The total energy is F=E-TS. E is the sum of the following terms:
     one-electron contribution =    -523.23493534 Ry
     hartree contribution      =     265.21334536 Ry
     xc contribution           =     -16.66944281 Ry
     ewald contribution        =     226.80604275 Ry

     convergence has been achieved in  37 iterations

[...]

     Forces acting on atoms (cartesian axes, Ry/au):

     atom    1 type  1   force =     0.00000000    0.00000000    0.00118005
     atom    2 type  1   force =     0.00000000    0.00000000    0.00083434
     atom    3 type  1   force =    -0.00000000   -0.00000000   -0.00118005
     atom    4 type  1   force =     0.00000000   -0.00000000   -0.00083434

     Total force =     0.002044     Total SCF correction =     0.000065

     Computing stress (Cartesian axis) and pressure

     negative rho (up, down):  1.773E-04 0.000E+00
          total   stress  (Ry/bohr**3)                   (kbar)     P=        0.15
   0.00001411   0.00000000   0.00000000            2.08        0.00        0.00
   0.00000000   0.00001411   0.00000000            0.00        2.08        0.00
   0.00000000   0.00000000  -0.00002519            0.00        0.00       -3.70

     BFGS Geometry Optimization
     Energy error            =      0.0E+00 Ry
     Gradient error          =      1.2E-03 Ry/Bohr
     Cell gradient error     =      2.1E+00 kbar

     number of scf cycles    =   1
     number of bfgs steps    =   0

     enthalpy           new  =     -47.8849900109 Ry

     new trust radius        =       0.0018798719 bohr
     new conv_thr            =       0.0000000010 Ry

     new unit-cell volume =    710.08736 a.u.^3 (   105.22409 Ang^3 )
     density =      0.75816 g/cm^3

CELL_PARAMETERS (alat=  4.65610675)
   1.000352854   0.000000000   0.000000000
  -0.500176427   0.866330985   0.000000000
   0.000000000   0.000000000   8.117194158

ATOMIC_POSITIONS (crystal)
C             0.0000000000        0.0000000000        0.4125312228
C             0.3333333330        0.6666666660        0.4125220756
C            -0.0000000000       -0.0000000000        0.5874687772
C             0.6666666660        0.3333333330        0.5874779244

     Writing config-only to output data dir ../tmp/gr.save/
     NEW-OLD atomic charge density approx. for the potential

[...]

     negative rho (up, down):  1.765E-04 0.000E+00
     extrapolated charge   16.01129, renormalised to   16.00000

[...]

          k =-0.0000 0.1443 0.0000 (  5582 PWs)   bands (ev):

[...]

     Energy error            =      8.9E-06 Ry
     Gradient error          =      1.1E-03 Ry/Bohr
     Cell gradient error     =      6.2E-01 kbar

[...]

     enthalpy           old  =     -47.8849900109 Ry
     enthalpy           new  =     -47.8849989152 Ry

     CASE: enthalpy          _new < enthalpy          _old

[...]

     number of scf cycles    =  14
     number of bfgs steps    =  13

     enthalpy           old  =     -47.8854014859 Ry
     enthalpy           new  =     -47.8854117910 Ry

     CASE: enthalpy          _new < enthalpy          _old

     new trust radius        =       0.0066589610 bohr
     new conv_thr            =            1.0E-11 Ry

     new unit-cell volume =    710.17504 a.u.^3 (   105.23708 Ang^3 )
     density =      0.75807 g/cm^3

[...]

ATOMIC_POSITIONS (crystal)
C            -0.0000000000        0.0000000000        0.4172475763
C             0.3333333330        0.6666666660        0.4172229945
C            -0.0000000000       -0.0000000000        0.5827524237
C             0.6666666660        0.3333333330        0.5827770055

     Writing config-only to output data dir ../tmp/gr.save/
     NEW-OLD atomic charge density approx. for the potential

[...]

     negative rho (up, down):  1.760E-04 0.000E+00
     extrapolated charge   15.98893, renormalised to   16.00000

[...]

     Total force =     0.000006     Total SCF correction =     0.000008
     SCF correction compared to forces is large: reduce conv_thr to get better values

[...]

     Energy error            =      2.9E-06 Ry
     Gradient error          =      3.5E-06 Ry/Bohr
     Cell gradient error     =      2.9E-02 kbar

     bfgs converged in  15 scf cycles and  14 bfgs steps
     (criteria: energy <  1.0E-05 Ry, force <  1.0E-04Ry/Bohr, cell <  5.0E-02kbar)

     End of BFGS Geometry Optimization

     Final enthalpy           =     -47.8854147310 Ry

     File ../tmp/gr.bfgs deleted, as requested
Begin final coordinates
     new unit-cell volume =    710.17504 a.u.^3 (   105.23708 Ang^3 )
     density =      0.75807 g/cm^3

CELL_PARAMETERS (alat=  4.65610675)
   1.000414613  -0.000000000   0.000000000
  -0.500207307   0.866384470   0.000000000
   0.000000000   0.000000000   8.117194158

ATOMIC_POSITIONS (crystal)
C            -0.0000000000        0.0000000000        0.4172475763
C             0.3333333330        0.6666666660        0.4172229945
C            -0.0000000000       -0.0000000000        0.5827524237
C             0.6666666660        0.3333333330        0.5827770055
End final coordinates

     Writing config-only to output data dir ../tmp/gr.save/

     Final scf calculation at the relaxed structure.
     The G-vectors are recalculated for the final unit cell
     Results may differ from those at the preceding step.

     Using Slab Decomposition

     bravais-lattice index     =            4
     lattice parameter (alat)  =       4.6561  a.u.
     unit-cell volume          =     710.1750 (a.u.)^3
     number of atoms/cell      =            4
     number of atomic types    =            1
     number of electrons       =        16.00
     number of Kohn-Sham states=           12
     kinetic-energy cutoff     =      60.0000  Ry
     charge density cutoff     =     240.0000  Ry
     scf convergence threshold =      1.0E-11
     mixing beta               =       0.7000
     number of iterations used =            8  plain     mixing
     press convergence thresh. =      5.0E-02
     Exchange-correlation= VDW-DF-C6
                           (   1   4  26   0   5   0   0)

     celldm(1)=   4.656107  celldm(2)=   0.000000  celldm(3)=   8.117194
     celldm(4)=   0.000000  celldm(5)=   0.000000  celldm(6)=   0.000000

     crystal axes: (cart. coord. in units of alat)
               a(1) = (   1.000415  -0.000000   0.000000 )
               a(2) = (  -0.500207   0.866384   0.000000 )
               a(3) = (   0.000000   0.000000   8.117194 )

     reciprocal axes: (cart. coord. in units 2 pi/alat)
               b(1) = (  0.999586  0.577111  0.000000 )
               b(2) = (  0.000000  1.154222  0.000000 )
               b(3) = (  0.000000  0.000000  0.123195 )

     PseudoPot. # 1 for C  read from file:
     ../pseudo/C.pbe-n-rrkjus_psl.0.1.UPF
     MD5 check sum: 96a6a315177d77e6c95bf6fd3870f9e3
     Pseudo is Ultrasoft + core correction, Zval =  4.0
     Generated using &quot;atomic&quot; code by A. Dal Corso  v.6.3MaX
     Using radial grid of 1073 points,  4 beta functions with:
                l(1) =   0
                l(2) =   0
                l(3) =   1
                l(4) =   1
     Q(r) pseudized with 0 coefficients

     atomic species   valence    mass     pseudopotential
        C              4.00    12.01070     C ( 1.00)

     12 Sym. Ops., with inversion, found

   Cartesian axes

     site n.     atom                  positions (alat units)
         1           C   tau(   1) = (  -0.0000000   0.0000000   3.3868796  )
         2           C   tau(   2) = (  -0.0000000   0.5775896   3.3866801  )
         3           C   tau(   3) = (  -0.0000000  -0.0000000   4.7303146  )
         4           C   tau(   4) = (   0.5002073   0.2887948   4.7305141  )

     number of k points=    10  Marzari-Vanderbilt smearing, width (Ry)=  0.0200
                       cart. coord. in units 2pi/alat
        k(    1) = (   0.0000000   0.0000000   0.0000000), wk =   0.0312500
        k(    2) = (   0.0000000   0.1442777   0.0000000), wk =   0.1875000
        k(    3) = (   0.0000000   0.2885555   0.0000000), wk =   0.1875000
        k(    4) = (   0.0000000   0.4328332   0.0000000), wk =   0.1875000
        k(    5) = (  -0.0000000  -0.5771110   0.0000000), wk =   0.0937500
        k(    6) = (   0.1249482   0.2164166   0.0000000), wk =   0.1875000
        k(    7) = (   0.1249482   0.3606944   0.0000000), wk =   0.3750000
        k(    8) = (   0.1249482   0.5049721   0.0000000), wk =   0.3750000
        k(    9) = (   0.2498964   0.4328332   0.0000000), wk =   0.1875000
        k(   10) = (   0.2498964   0.5771110   0.0000000), wk =   0.1875000

     Check: negative core charge=   -0.000004

     Initial potential from superposition of free atoms

     starting charge      15.9998, renormalised to      16.0000

     negative rho (up, down):  1.377E-04 0.000E+00
     Starting wfcs are   16 randomized atomic wfcs

     Self-consistent Calculation

[...]

     iteration # 32     ecut=    60.00 Ry     beta= 0.70
     Davidson diagonalization with overlap
     c_bands:  5 eigenvalues not converged
     ethr =  1.79E-13,  avg # of iterations = 15.1

[...]

     total energy              =     -47.88541873 Ry
     estimated scf accuracy    <          8.5E-11 Ry

     iteration # 34     ecut=    60.00 Ry     beta= 0.70
     Davidson diagonalization with overlap
     ethr =  1.79E-13,  avg # of iterations =  3.9

[...]

     End of self-consistent calculation

[...]

          k =-0.0000-0.5771 0.0000 (  5604 PWs)   bands (ev):

[...]

          k = 0.2499 0.5771 0.0000 (  5556 PWs)   bands (ev):

   -13.9568 -13.8980 -13.0627 -13.0376 -10.3810 -10.3226  -1.8599  -1.4795
     0.3237   0.4008   9.9721  10.1357

     the Fermi energy is    -0.3978 ev

     WARNING: integrated charge=    16.00000265, expected=    16.00000000

!    total energy              =     -47.88541873 Ry
     estimated scf accuracy    <          6.1E-12 Ry
     smearing contrib. (-TS)   =       0.00000004 Ry
     internal energy E=F+TS    =     -47.88541877 Ry

     The total energy is F=E-TS. E is the sum of the following terms:
     one-electron contribution =    -542.98500178 Ry
     hartree contribution      =     275.08307358 Ry
     xc contribution           =     -16.67136388 Ry
     ewald contribution        =     236.68787332 Ry

     convergence has been achieved in  34 iterations

     negative rho (up, down):  1.752E-04 0.000E+00

     Forces acting on atoms (cartesian axes, Ry/au):

     atom    1 type  1   force =     0.00000000    0.00000000    0.00000634
     atom    2 type  1   force =     0.00000000    0.00000000    0.00000706
     atom    3 type  1   force =    -0.00000000   -0.00000000   -0.00000634
     atom    4 type  1   force =     0.00000000    0.00000000   -0.00000706

     Total force =     0.000013     Total SCF correction =     0.000001

     Computing stress (Cartesian axis) and pressure

     negative rho (up, down):  1.752E-04 0.000E+00
          total   stress  (Ry/bohr**3)                   (kbar)     P=       -0.26
   0.00000019   0.00000000   0.00000000            0.03        0.00        0.00
   0.00000000   0.00000019   0.00000000            0.00        0.03        0.00
  -0.00000000  -0.00000000  -0.00000574           -0.00       -0.00       -0.84

     Writing all to output data dir ../tmp/gr.save/

     General routines

     Parallel routines

   This run was terminated on:   0:31:13   2Feb2022

   JOB DONE.