     Program PWSCF v.7.0 starts on  2Feb2022 at  0:17:52

     R & G space division:  proc/nbgrp/npool/nimage =       4

     Waiting for input...
     Reading input from standard input

     Current dimensions of program PWSCF are:
     Max number of different atomic species (ntypx) = 10
     Max number of k-points (npk) =  40000
     Max angular momentum in pseudopotentials (lmaxx) =  4

     IMPORTANT: XC functional enforced from input :
     Exchange-correlation= PBE
                           (   1   4   3   4   0   0   0)
     Any further DFT definition will be discarded
     Please, verify this is what you really want

     Subspace diagonalization in iterative solution of the eigenvalue problem:
     a serial algorithm will be used

     Using Slab Decomposition

     bravais-lattice index     =            4
     lattice parameter (alat)  =       4.6561  a.u.
     unit-cell volume          =     709.5865 (a.u.)^3
     number of atoms/cell      =            4
     number of atomic types    =            1
     number of electrons       =        16.00
     number of Kohn-Sham states=           12
     kinetic-energy cutoff     =      60.0000  Ry
     charge density cutoff     =     240.0000  Ry
     scf convergence threshold =      1.0E-09
     mixing beta               =       0.7000
     number of iterations used =            8  plain     mixing
     energy convergence thresh.=      1.0E-05
     force convergence thresh. =      1.0E-04
     press convergence thresh. =      5.0E-02
     Exchange-correlation= PBE
                           (   1   4   3   4   0   0   0)
     nstep                     =           50

     celldm(1)=   4.656107  celldm(2)=   0.000000  celldm(3)=   8.117194
     celldm(4)=   0.000000  celldm(5)=   0.000000  celldm(6)=   0.000000

     crystal axes: (cart. coord. in units of alat)
               a(1) = (   1.000000   0.000000   0.000000 )
               a(2) = (  -0.500000   0.866025   0.000000 )
               a(3) = (   0.000000   0.000000   8.117194 )

     reciprocal axes: (cart. coord. in units 2 pi/alat)
               b(1) = (  1.000000  0.577350  0.000000 )
               b(2) = (  0.000000  1.154701  0.000000 )
               b(3) = (  0.000000  0.000000  0.123195 )

     PseudoPot. # 1 for C  read from file:
     ../pseudo/C.pbe-n-rrkjus_psl.0.1.UPF
     MD5 check sum: 96a6a315177d77e6c95bf6fd3870f9e3
     Pseudo is Ultrasoft + core correction, Zval =  4.0
     Generated using &quot;atomic&quot; code by A. Dal Corso  v.6.3MaX
     Using radial grid of 1073 points,  4 beta functions with:
                l(1) =   0
                l(2) =   0
                l(3) =   1
                l(4) =   1
     Q(r) pseudized with 0 coefficients

     atomic species   valence    mass     pseudopotential
        C              4.00    12.01070     C ( 1.00)

     12 Sym. Ops., with inversion, found

   Cartesian axes

     site n.     atom                  positions (alat units)
         1           C   tau(   1) = (   0.0000000   0.0000000   3.3483426  )
         2           C   tau(   2) = (   0.0000000   0.5773503   3.3483426  )
         3           C   tau(   3) = (   0.0000000   0.0000000   4.7688516  )
         4           C   tau(   4) = (   0.5000000   0.2886751   4.7688516  )

     number of k points=    10  Marzari-Vanderbilt smearing, width (Ry)=  0.0200
                       cart. coord. in units 2pi/alat
        k(    1) = (   0.0000000   0.0000000   0.0000000), wk =   0.0312500
        k(    2) = (   0.0000000   0.1443376   0.0000000), wk =   0.1875000
        k(    3) = (   0.0000000   0.2886751   0.0000000), wk =   0.1875000
        k(    4) = (   0.0000000   0.4330127   0.0000000), wk =   0.1875000
        k(    5) = (   0.0000000  -0.5773503   0.0000000), wk =   0.0937500
        k(    6) = (   0.1250000   0.2165064   0.0000000), wk =   0.1875000
        k(    7) = (   0.1250000   0.3608439   0.0000000), wk =   0.3750000
        k(    8) = (   0.1250000   0.5051815   0.0000000), wk =   0.3750000
        k(    9) = (   0.2500000   0.4330127   0.0000000), wk =   0.1875000
        k(   10) = (   0.2500000   0.5773503   0.0000000), wk =   0.1875000

     Check: negative core charge=   -0.000004

     Initial potential from superposition of free atoms

     starting charge      15.9998, renormalised to      16.0000

     negative rho (up, down):  1.330E-04 0.000E+00
     Starting wfcs are   16 randomized atomic wfcs

     Self-consistent Calculation

     iteration #  1     ecut=    60.00 Ry     beta= 0.70
     Davidson diagonalization with overlap
     ethr =  1.00E-02,  avg # of iterations =  3.9

     Threshold (ethr) on eigenvalues was too large:
     Diagonalizing with lowered threshold

     Davidson diagonalization with overlap
     ethr =  6.92E-04,  avg # of iterations =  7.1

     negative rho (up, down):  4.393E-05 0.000E+00

     total energy              =     -47.77157205 Ry
     estimated scf accuracy    <       0.36357202 Ry

[...]

     iteration #  3     ecut=    60.00 Ry     beta= 0.70
     Davidson diagonalization with overlap
     c_bands:  2 eigenvalues not converged
     c_bands:  2 eigenvalues not converged
     c_bands:  4 eigenvalues not converged
     c_bands:  4 eigenvalues not converged
     c_bands:  1 eigenvalues not converged
     c_bands:  2 eigenvalues not converged
     c_bands:  2 eigenvalues not converged
     ethr =  1.29E-04,  avg # of iterations = 17.0

[...]

     WARNING: integrated charge=    15.99999773, expected=    16.00000000

[...]

     End of self-consistent calculation

          k = 0.0000 0.0000 0.0000 (  5565 PWs)   bands (ev):

   -20.0476 -19.9402  -8.4830  -7.7004  -3.5352  -3.5352  -3.5294  -3.5294
     2.7795   3.1514   3.5622   4.8327

[...]

     the Fermi energy is    -0.2732 ev

[...]

!    total energy              =     -47.81959048 Ry
     estimated scf accuracy    <          3.9E-10 Ry
     smearing contrib. (-TS)   =       0.00000002 Ry
     internal energy E=F+TS    =     -47.81959051 Ry

     The total energy is F=E-TS. E is the sum of the following terms:
     one-electron contribution =    -523.35823792 Ry
     hartree contribution      =     265.34431331 Ry
     xc contribution           =     -16.61170865 Ry
     ewald contribution        =     226.80604275 Ry

     convergence has been achieved in  28 iterations

[...]

     Forces acting on atoms (cartesian axes, Ry/au):

     atom    1 type  1   force =     0.00000000    0.00000000   -0.00110531
     atom    2 type  1   force =     0.00000000    0.00000000   -0.00138726
     atom    3 type  1   force =     0.00000000    0.00000000    0.00110531
     atom    4 type  1   force =     0.00000000    0.00000000    0.00138726

     Total force =     0.002508     Total SCF correction =     0.000002

     Computing stress (Cartesian axis) and pressure

     negative rho (up, down):  1.830E-04 0.000E+00
          total   stress  (Ry/bohr**3)                   (kbar)     P=        0.54
  -0.00000420  -0.00000000   0.00000000           -0.62       -0.00        0.00
  -0.00000000  -0.00000420   0.00000000           -0.00       -0.62        0.00
  -0.00000000  -0.00000000   0.00001943           -0.00       -0.00        2.86

     BFGS Geometry Optimization
     Energy error            =      0.0E+00 Ry
     Gradient error          =      1.4E-03 Ry/Bohr
     Cell gradient error     =      6.2E-01 kbar

     number of scf cycles    =   1
     number of bfgs steps    =   0

     enthalpy           new  =     -47.8195904824 Ry

     new trust radius        =       0.0013872595 bohr
     new conv_thr            =       0.0000000010 Ry

     new unit-cell volume =    709.43762 a.u.^3 (   105.12781 Ang^3 )
     density =      0.75886 g/cm^3

CELL_PARAMETERS (alat=  4.65610675)
   0.999895079  -0.000000000   0.000000000
  -0.499947539   0.865934539   0.000000000
   0.000000000   0.000000000   8.117194158

ATOMIC_POSITIONS (crystal)
C             0.0000000000        0.0000000000        0.4124707548
C             0.3333333330        0.6666666660        0.4124632947
C             0.0000000000        0.0000000000        0.5875292452
C             0.6666666660        0.3333333330        0.5875367053

     Writing config-only to output data dir ../tmp/gr.save/
     NEW-OLD atomic charge density approx. for the potential

[...]

     negative rho (up, down):  1.830E-04 0.000E+00
     extrapolated charge   15.99664, renormalised to   16.00000

[...]

          k =-0.0000-0.5774 0.0000 (  5604 PWs)   bands (ev):

[...]

     Energy error            =      6.6E-06 Ry
     Gradient error          =      1.3E-03 Ry/Bohr
     Cell gradient error     =      1.8E-01 kbar

[...]

     enthalpy           old  =     -47.8195904824 Ry
     enthalpy           new  =     -47.8195971315 Ry

     CASE: enthalpy          _new < enthalpy          _old

     WARNING: bfgs curvature condition failed, Theta= 0.846
     new trust radius        =       0.0015259854 bohr
     new conv_thr            =            1.0E-11 Ry

[...]

     Total force =     0.000067     Total SCF correction =     0.000014
     SCF correction compared to forces is large: reduce conv_thr to get better values

[...]

     Total force =     0.000057     Total SCF correction =     0.000006
     SCF correction compared to forces is large: reduce conv_thr to get better values

[...]

     number of scf cycles    =  20
     number of bfgs steps    =  19

     enthalpy           old  =     -47.8207323370 Ry
     enthalpy           new  =     -47.8207323802 Ry

     CASE: enthalpy          _new < enthalpy          _old

     new trust radius        =       0.0016629986 bohr
     new conv_thr            =            1.0E-11 Ry

     new unit-cell volume =    709.50076 a.u.^3 (   105.13717 Ang^3 )
     density =      0.75879 g/cm^3

[...]

ATOMIC_POSITIONS (crystal)
C             0.0000000000        0.0000000000        0.3924345633
C             0.3333333330        0.6666666660        0.3924333780
C            -0.0000000000       -0.0000000000        0.6075654367
C             0.6666666660        0.3333333330        0.6075666220

     Writing config-only to output data dir ../tmp/gr.save/
     NEW-OLD atomic charge density approx. for the potential

[...]

     negative rho (up, down):  1.737E-04 0.000E+00
     extrapolated charge   16.00073, renormalised to   16.00000

[...]

     Threshold (ethr) on eigenvalues was too large:
     Diagonalizing with lowered threshold

     Davidson diagonalization with overlap
     ethr =  2.12E-09,  avg # of iterations =  8.8

[...]

     Energy error            =      5.9E-09 Ry
     Gradient error          =      3.3E-05 Ry/Bohr
     Cell gradient error     =      3.1E-02 kbar

     bfgs converged in  21 scf cycles and  20 bfgs steps
     (criteria: energy <  1.0E-05 Ry, force <  1.0E-04Ry/Bohr, cell <  5.0E-02kbar)

     End of BFGS Geometry Optimization

     Final enthalpy           =     -47.8207323743 Ry

     File ../tmp/gr.bfgs deleted, as requested
Begin final coordinates
     new unit-cell volume =    709.50076 a.u.^3 (   105.13717 Ang^3 )
     density =      0.75879 g/cm^3

CELL_PARAMETERS (alat=  4.65610675)
   0.999939575   0.000000000   0.000000000
  -0.499969787   0.865973074   0.000000000
   0.000000000   0.000000000   8.117194158

ATOMIC_POSITIONS (crystal)
C             0.0000000000        0.0000000000        0.3924345633
C             0.3333333330        0.6666666660        0.3924333780
C            -0.0000000000       -0.0000000000        0.6075654367
C             0.6666666660        0.3333333330        0.6075666220
End final coordinates

     Writing config-only to output data dir ../tmp/gr.save/

     Final scf calculation at the relaxed structure.
     The G-vectors are recalculated for the final unit cell
     Results may differ from those at the preceding step.

     Using Slab Decomposition

     bravais-lattice index     =            4
     lattice parameter (alat)  =       4.6561  a.u.
     unit-cell volume          =     709.5008 (a.u.)^3
     number of atoms/cell      =            4
     number of atomic types    =            1
     number of electrons       =        16.00
     number of Kohn-Sham states=           12
     kinetic-energy cutoff     =      60.0000  Ry
     charge density cutoff     =     240.0000  Ry
     scf convergence threshold =      1.0E-11
     mixing beta               =       0.7000
     number of iterations used =            8  plain     mixing
     press convergence thresh. =      5.0E-02
     Exchange-correlation= PBE
                           (   1   4   3   4   0   0   0)

     celldm(1)=   4.656107  celldm(2)=   0.000000  celldm(3)=   8.117194
     celldm(4)=   0.000000  celldm(5)=   0.000000  celldm(6)=   0.000000

     crystal axes: (cart. coord. in units of alat)
               a(1) = (   0.999940   0.000000   0.000000 )
               a(2) = (  -0.499970   0.865973   0.000000 )
               a(3) = (   0.000000   0.000000   8.117194 )

     reciprocal axes: (cart. coord. in units 2 pi/alat)
               b(1) = (  1.000060  0.577385  0.000000 )
               b(2) = ( -0.000000  1.154770  0.000000 )
               b(3) = (  0.000000  0.000000  0.123195 )

     PseudoPot. # 1 for C  read from file:
     ../pseudo/C.pbe-n-rrkjus_psl.0.1.UPF
     MD5 check sum: 96a6a315177d77e6c95bf6fd3870f9e3
     Pseudo is Ultrasoft + core correction, Zval =  4.0
     Generated using &quot;atomic&quot; code by A. Dal Corso  v.6.3MaX
     Using radial grid of 1073 points,  4 beta functions with:
                l(1) =   0
                l(2) =   0
                l(3) =   1
                l(4) =   1
     Q(r) pseudized with 0 coefficients

     atomic species   valence    mass     pseudopotential
        C              4.00    12.01070     C ( 1.00)

     12 Sym. Ops., with inversion, found

   Cartesian axes

     site n.     atom                  positions (alat units)
         1           C   tau(   1) = (   0.0000000   0.0000000   3.1854675  )
         2           C   tau(   2) = (  -0.0000000   0.5773154   3.1854579  )
         3           C   tau(   3) = (  -0.0000000  -0.0000000   4.9317266  )
         4           C   tau(   4) = (   0.4999698   0.2886577   4.9317362  )

     number of k points=    10  Marzari-Vanderbilt smearing, width (Ry)=  0.0200
                       cart. coord. in units 2pi/alat
        k(    1) = (   0.0000000   0.0000000   0.0000000), wk =   0.0312500
        k(    2) = (  -0.0000000   0.1443463   0.0000000), wk =   0.1875000
        k(    3) = (  -0.0000000   0.2886926   0.0000000), wk =   0.1875000
        k(    4) = (  -0.0000000   0.4330389   0.0000000), wk =   0.1875000
        k(    5) = (   0.0000000  -0.5773852   0.0000000), wk =   0.0937500
        k(    6) = (   0.1250076   0.2165194   0.0000000), wk =   0.1875000
        k(    7) = (   0.1250076   0.3608657   0.0000000), wk =   0.3750000
        k(    8) = (   0.1250076   0.5052120   0.0000000), wk =   0.3750000
        k(    9) = (   0.2500151   0.4330389   0.0000000), wk =   0.1875000
        k(   10) = (   0.2500151   0.5773852   0.0000000), wk =   0.1875000

     Check: negative core charge=   -0.000004

     Initial potential from superposition of free atoms

     starting charge      15.9998, renormalised to      16.0000

     negative rho (up, down):  1.295E-04 0.000E+00
     Starting wfcs are   16 randomized atomic wfcs

     Self-consistent Calculation

[...]

     WARNING: integrated charge=    15.99999066, expected=    16.00000000

[...]

     iteration # 19     ecut=    60.00 Ry     beta= 0.70
     Davidson diagonalization with overlap
     c_bands:  1 eigenvalues not converged
     ethr =  2.73E-06,  avg # of iterations =  4.6

[...]

     total energy              =     -47.82073232 Ry
     estimated scf accuracy    <          2.3E-10 Ry

     iteration # 41     ecut=    60.00 Ry     beta= 0.70
     Davidson diagonalization with overlap
     ethr =  1.46E-12,  avg # of iterations =  4.6

[...]

     End of self-consistent calculation

[...]

          k =-0.0000 0.4330 0.0000 (  5594 PWs)   bands (ev):

[...]

          k = 0.2500 0.5774 0.0000 (  5540 PWs)   bands (ev):

   -13.7961 -13.7914 -12.9254 -12.9231 -10.2260 -10.2216  -1.5113  -1.4473
     0.4967   0.4977  10.3383  10.4638

     the Fermi energy is    -0.3008 ev

!    total energy              =     -47.82073232 Ry
     estimated scf accuracy    <          2.6E-12 Ry
     smearing contrib. (-TS)   =       0.00000001 Ry
     internal energy E=F+TS    =     -47.82073233 Ry

     The total energy is F=E-TS. E is the sum of the following terms:
     one-electron contribution =    -444.17823111 Ry
     hartree contribution      =     225.75658003 Ry
     xc contribution           =     -16.60813445 Ry
     ewald contribution        =     187.20905320 Ry

     convergence has been achieved in  41 iterations

     negative rho (up, down):  1.744E-04 0.000E+00

     Forces acting on atoms (cartesian axes, Ry/au):

     atom    1 type  1   force =    -0.00000000    0.00000000   -0.00000050
     atom    2 type  1   force =    -0.00000000    0.00000000    0.00001274
     atom    3 type  1   force =    -0.00000000   -0.00000000    0.00000050
     atom    4 type  1   force =    -0.00000000    0.00000000   -0.00001274

     Total force =     0.000018     Total SCF correction =     0.000000

     Computing stress (Cartesian axis) and pressure

     negative rho (up, down):  1.744E-04 0.000E+00
          total   stress  (Ry/bohr**3)                   (kbar)     P=       -0.17
   0.00000020   0.00000000   0.00000000            0.03        0.00        0.00
   0.00000000   0.00000020   0.00000000            0.00        0.03        0.00
   0.00000000   0.00000000  -0.00000377            0.00        0.00       -0.56

     Writing all to output data dir ../tmp/gr.save/

     General routines

     Parallel routines

   This run was terminated on:   0:19:53   2Feb2022

   JOB DONE.