     Program PWSCF v.7.0 starts on  2Feb2022 at  0:21:58

     R & G space division:  proc/nbgrp/npool/nimage =       4

     Waiting for input...
     Reading input from standard input

     Current dimensions of program PWSCF are:
     Max number of different atomic species (ntypx) = 10
     Max number of k-points (npk) =  40000
     Max angular momentum in pseudopotentials (lmaxx) =  4

     IMPORTANT: XC functional enforced from input :
     Exchange-correlation= VDW-DF2
                           (   1   4  13   0   2   0   0)
     Any further DFT definition will be discarded
     Please, verify this is what you really want

     Subspace diagonalization in iterative solution of the eigenvalue problem:
     a serial algorithm will be used

     Using Slab Decomposition

     bravais-lattice index     =            4
     lattice parameter (alat)  =       4.6561  a.u.
     unit-cell volume          =     709.5865 (a.u.)^3
     number of atoms/cell      =            4
     number of atomic types    =            1
     number of electrons       =        16.00
     number of Kohn-Sham states=           12
     kinetic-energy cutoff     =      60.0000  Ry
     charge density cutoff     =     240.0000  Ry
     scf convergence threshold =      1.0E-09
     mixing beta               =       0.7000
     number of iterations used =            8  plain     mixing
     energy convergence thresh.=      1.0E-05
     force convergence thresh. =      1.0E-04
     press convergence thresh. =      5.0E-02
     Exchange-correlation= VDW-DF2
                           (   1   4  13   0   2   0   0)
     nstep                     =           50

     celldm(1)=   4.656107  celldm(2)=   0.000000  celldm(3)=   8.117194
     celldm(4)=   0.000000  celldm(5)=   0.000000  celldm(6)=   0.000000

     crystal axes: (cart. coord. in units of alat)
               a(1) = (   1.000000   0.000000   0.000000 )
               a(2) = (  -0.500000   0.866025   0.000000 )
               a(3) = (   0.000000   0.000000   8.117194 )

     reciprocal axes: (cart. coord. in units 2 pi/alat)
               b(1) = (  1.000000  0.577350  0.000000 )
               b(2) = (  0.000000  1.154701  0.000000 )
               b(3) = (  0.000000  0.000000  0.123195 )

     PseudoPot. # 1 for C  read from file:
     ../pseudo/C.pbe-n-rrkjus_psl.0.1.UPF
     MD5 check sum: 96a6a315177d77e6c95bf6fd3870f9e3
     Pseudo is Ultrasoft + core correction, Zval =  4.0
     Generated using &quot;atomic&quot; code by A. Dal Corso  v.6.3MaX
     Using radial grid of 1073 points,  4 beta functions with:
                l(1) =   0
                l(2) =   0
                l(3) =   1
                l(4) =   1
     Q(r) pseudized with 0 coefficients

     atomic species   valence    mass     pseudopotential
        C              4.00    12.01070     C ( 1.00)

     12 Sym. Ops., with inversion, found

   Cartesian axes

     site n.     atom                  positions (alat units)
         1           C   tau(   1) = (   0.0000000   0.0000000   3.3483426  )
         2           C   tau(   2) = (   0.0000000   0.5773503   3.3483426  )
         3           C   tau(   3) = (   0.0000000   0.0000000   4.7688516  )
         4           C   tau(   4) = (   0.5000000   0.2886751   4.7688516  )

     number of k points=    10  Marzari-Vanderbilt smearing, width (Ry)=  0.0200
                       cart. coord. in units 2pi/alat
        k(    1) = (   0.0000000   0.0000000   0.0000000), wk =   0.0312500
        k(    2) = (   0.0000000   0.1443376   0.0000000), wk =   0.1875000
        k(    3) = (   0.0000000   0.2886751   0.0000000), wk =   0.1875000
        k(    4) = (   0.0000000   0.4330127   0.0000000), wk =   0.1875000
        k(    5) = (   0.0000000  -0.5773503   0.0000000), wk =   0.0937500
        k(    6) = (   0.1250000   0.2165064   0.0000000), wk =   0.1875000
        k(    7) = (   0.1250000   0.3608439   0.0000000), wk =   0.3750000
        k(    8) = (   0.1250000   0.5051815   0.0000000), wk =   0.3750000
        k(    9) = (   0.2500000   0.4330127   0.0000000), wk =   0.1875000
        k(   10) = (   0.2500000   0.5773503   0.0000000), wk =   0.1875000

     Check: negative core charge=   -0.000004

     Initial potential from superposition of free atoms

     starting charge      15.9998, renormalised to      16.0000

     negative rho (up, down):  1.330E-04 0.000E+00

     %%%%%%%%%%%%%%%%%%%%%%%%%%%%%%%%%%%%%%%%%%%%%%%%%%%%%%%%%%%%%%%%%%%%%%%%
     %                                                                      %
     % You are using vdW-DF, which was implemented by the Thonhauser group. %
     % Please cite the following two papers that made this development      %
     % possible and the two reviews that describe the various versions:     %
     %                                                                      %
     %   T. Thonhauser et al., PRL 115, 136402 (2015).                      %
     %   T. Thonhauser et al., PRB 76, 125112 (2007).                       %
     %   K. Berland et al., Rep. Prog. Phys. 78, 066501 (2015).             %
     %   D.C. Langreth et al., J. Phys.: Condens. Matter 21, 084203 (2009). %
     %                                                                      %
     %                                                                      %
     % If you are calculating the stress with vdW-DF, please also cite:     %
     %                                                                      %
     %   R. Sabatini et al., J. Phys.: Condens. Matter 24, 424209 (2012).   %
     %                                                                      %
     %%%%%%%%%%%%%%%%%%%%%%%%%%%%%%%%%%%%%%%%%%%%%%%%%%%%%%%%%%%%%%%%%%%%%%%%

     Starting wfcs are   16 randomized atomic wfcs

     Self-consistent Calculation

     iteration #  1     ecut=    60.00 Ry     beta= 0.70
     Davidson diagonalization with overlap
     ethr =  1.00E-02,  avg # of iterations =  3.9

     Threshold (ethr) on eigenvalues was too large:
     Diagonalizing with lowered threshold

     Davidson diagonalization with overlap
     ethr =  8.07E-04,  avg # of iterations =  6.7

[...]

     total energy              =     -48.27408170 Ry
     estimated scf accuracy    <       0.42032892 Ry

[...]

     iteration #  3     ecut=    60.00 Ry     beta= 0.70
     Davidson diagonalization with overlap
     c_bands:  2 eigenvalues not converged
     c_bands:  3 eigenvalues not converged
     c_bands:  4 eigenvalues not converged
     c_bands:  4 eigenvalues not converged
     c_bands:  4 eigenvalues not converged
     c_bands:  2 eigenvalues not converged
     c_bands:  2 eigenvalues not converged
     ethr =  1.40E-04,  avg # of iterations = 17.4

[...]

     WARNING: integrated charge=    15.99999103, expected=    16.00000000

[...]

     End of self-consistent calculation

          k = 0.0000 0.0000 0.0000 (  5565 PWs)   bands (ev):

   -20.0908 -19.9794  -8.5611  -7.7390  -3.8281  -3.8281  -3.8223  -3.8223
     1.8431   2.1772   2.6140   3.8433

[...]

     the Fermi energy is    -0.3437 ev

[...]

!    total energy              =     -48.34201575 Ry
     estimated scf accuracy    <          5.7E-10 Ry
     smearing contrib. (-TS)   =       0.00000003 Ry
     internal energy E=F+TS    =     -48.34201578 Ry

     The total energy is F=E-TS. E is the sum of the following terms:
     one-electron contribution =    -523.27426918 Ry
     hartree contribution      =     265.30849643 Ry
     xc contribution           =     -17.18228578 Ry
     ewald contribution        =     226.80604275 Ry

     convergence has been achieved in  31 iterations

[...]

     Forces acting on atoms (cartesian axes, Ry/au):

     atom    1 type  1   force =     0.00000000    0.00000000   -0.00016436
     atom    2 type  1   force =     0.00000000    0.00000000   -0.00067917
     atom    3 type  1   force =     0.00000000    0.00000000    0.00016436
     atom    4 type  1   force =     0.00000000    0.00000000    0.00067917

     Total force =     0.000988     Total SCF correction =     0.000001

     Computing stress (Cartesian axis) and pressure

     negative rho (up, down):  1.755E-04 0.000E+00
          total   stress  (Ry/bohr**3)                   (kbar)     P=       24.03
   0.00024430  -0.00000000   0.00000000           35.94       -0.00        0.00
  -0.00000000   0.00024430   0.00000000           -0.00       35.94        0.00
  -0.00000000  -0.00000000   0.00000152           -0.00       -0.00        0.22

     BFGS Geometry Optimization
     Energy error            =      0.0E+00 Ry
     Gradient error          =      6.8E-04 Ry/Bohr
     Cell gradient error     =      3.6E+01 kbar

     number of scf cycles    =   1
     number of bfgs steps    =   0

     enthalpy           new  =     -48.3420157534 Ry

     new trust radius        =       0.0325389209 bohr
     new conv_thr            =       0.0000000010 Ry

     new unit-cell volume =    718.28072 a.u.^3 (   106.43822 Ang^3 )
     density =      0.74951 g/cm^3

CELL_PARAMETERS (alat=  4.65610675)
   1.006107598  -0.000000000   0.000000000
  -0.503053799   0.871314739   0.000000000
   0.000000000   0.000000000   8.117194158

ATOMIC_POSITIONS (crystal)
C             0.0000000000        0.0000000000        0.4124956512
C             0.3333333330        0.6666666660        0.4124820300
C             0.0000000000        0.0000000000        0.5875043488
C             0.6666666660        0.3333333330        0.5875179700

     Writing config-only to output data dir ../tmp/gr.save/
     NEW-OLD atomic charge density approx. for the potential

[...]

     negative rho (up, down):  1.565E-04 0.000E+00
     extrapolated charge   16.19367, renormalised to   16.00000

[...]

          k =-0.0000-0.5738 0.0000 (  5604 PWs)   bands (ev):

[...]

     Energy error            =      1.4E-03 Ry
     Gradient error          =      5.7E-04 Ry/Bohr
     Cell gradient error     =      1.1E+01 kbar

[...]

     enthalpy           old  =     -48.3420157534 Ry
     enthalpy           new  =     -48.3433941134 Ry

     CASE: enthalpy          _new < enthalpy          _old

[...]

     Total force =     0.000056     Total SCF correction =     0.000004

[...]

     Total force =     0.000046     Total SCF correction =     0.000005
     SCF correction compared to forces is large: reduce conv_thr to get better values

[...]

     number of scf cycles    =  15
     number of bfgs steps    =  14

     enthalpy           old  =     -48.3435788757 Ry
     enthalpy           new  =     -48.3435794877 Ry

     CASE: enthalpy          _new < enthalpy          _old

     new trust radius        =       0.0013925933 bohr
     new conv_thr            =            1.0E-11 Ry

     new unit-cell volume =    722.23244 a.u.^3 (   107.02381 Ang^3 )
     density =      0.74541 g/cm^3

[...]

ATOMIC_POSITIONS (crystal)
C             0.0000000000        0.0000000000        0.4112153063
C             0.3333333330        0.6666666660        0.4111971276
C            -0.0000000000       -0.0000000000        0.5887846937
C             0.6666666660        0.3333333330        0.5888028724

     Writing config-only to output data dir ../tmp/gr.save/
     NEW-OLD atomic charge density approx. for the potential

[...]

     negative rho (up, down):  1.806E-04 0.000E+00
     extrapolated charge   15.99749, renormalised to   16.00000

[...]

     Threshold (ethr) on eigenvalues was too large:
     Diagonalizing with lowered threshold

     Davidson diagonalization with overlap
     ethr =  8.31E-09,  avg # of iterations =  7.8

[...]

     Energy error            =      2.4E-07 Ry
     Gradient error          =      5.0E-06 Ry/Bohr
     Cell gradient error     =      1.2E-02 kbar

     bfgs converged in  16 scf cycles and  15 bfgs steps
     (criteria: energy <  1.0E-05 Ry, force <  1.0E-04Ry/Bohr, cell <  5.0E-02kbar)

     End of BFGS Geometry Optimization

     Final enthalpy           =     -48.3435797302 Ry

     File ../tmp/gr.bfgs deleted, as requested
Begin final coordinates
     new unit-cell volume =    722.23244 a.u.^3 (   107.02381 Ang^3 )
     density =      0.74541 g/cm^3

CELL_PARAMETERS (alat=  4.65610675)
   1.008871419   0.000000000   0.000000000
  -0.504435709   0.873708278   0.000000000
   0.000000000   0.000000000   8.117194158

ATOMIC_POSITIONS (crystal)
C             0.0000000000        0.0000000000        0.4112153063
C             0.3333333330        0.6666666660        0.4111971276
C            -0.0000000000       -0.0000000000        0.5887846937
C             0.6666666660        0.3333333330        0.5888028724
End final coordinates

     Writing config-only to output data dir ../tmp/gr.save/

     Final scf calculation at the relaxed structure.
     The G-vectors are recalculated for the final unit cell
     Results may differ from those at the preceding step.

     Using Slab Decomposition

     bravais-lattice index     =            4
     lattice parameter (alat)  =       4.6561  a.u.
     unit-cell volume          =     722.2324 (a.u.)^3
     number of atoms/cell      =            4
     number of atomic types    =            1
     number of electrons       =        16.00
     number of Kohn-Sham states=           12
     kinetic-energy cutoff     =      60.0000  Ry
     charge density cutoff     =     240.0000  Ry
     scf convergence threshold =      1.0E-11
     mixing beta               =       0.7000
     number of iterations used =            8  plain     mixing
     press convergence thresh. =      5.0E-02
     Exchange-correlation= VDW-DF2
                           (   1   4  13   0   2   0   0)

     celldm(1)=   4.656107  celldm(2)=   0.000000  celldm(3)=   8.117194
     celldm(4)=   0.000000  celldm(5)=   0.000000  celldm(6)=   0.000000

     crystal axes: (cart. coord. in units of alat)
               a(1) = (   1.008871   0.000000   0.000000 )
               a(2) = (  -0.504436   0.873708   0.000000 )
               a(3) = (   0.000000   0.000000   8.117194 )

     reciprocal axes: (cart. coord. in units 2 pi/alat)
               b(1) = (  0.991207  0.572273  0.000000 )
               b(2) = ( -0.000000  1.144547  0.000000 )
               b(3) = (  0.000000  0.000000  0.123195 )

     PseudoPot. # 1 for C  read from file:
     ../pseudo/C.pbe-n-rrkjus_psl.0.1.UPF
     MD5 check sum: 96a6a315177d77e6c95bf6fd3870f9e3
     Pseudo is Ultrasoft + core correction, Zval =  4.0
     Generated using &quot;atomic&quot; code by A. Dal Corso  v.6.3MaX
     Using radial grid of 1073 points,  4 beta functions with:
                l(1) =   0
                l(2) =   0
                l(3) =   1
                l(4) =   1
     Q(r) pseudized with 0 coefficients

     atomic species   valence    mass     pseudopotential
        C              4.00    12.01070     C ( 1.00)

     12 Sym. Ops., with inversion, found

   Cartesian axes

     site n.     atom                  positions (alat units)
         1           C   tau(   1) = (   0.0000000   0.0000000   3.3379145  )
         2           C   tau(   2) = (   0.0000000   0.5824722   3.3377669  )
         3           C   tau(   3) = (  -0.0000000  -0.0000000   4.7792797  )
         4           C   tau(   4) = (   0.5044357   0.2912361   4.7794272  )

     number of k points=    10  Marzari-Vanderbilt smearing, width (Ry)=  0.0200
                       cart. coord. in units 2pi/alat
        k(    1) = (   0.0000000   0.0000000   0.0000000), wk =   0.0312500
        k(    2) = (  -0.0000000   0.1430683   0.0000000), wk =   0.1875000
        k(    3) = (  -0.0000000   0.2861367   0.0000000), wk =   0.1875000
        k(    4) = (  -0.0000000   0.4292050   0.0000000), wk =   0.1875000
        k(    5) = (   0.0000000  -0.5722734   0.0000000), wk =   0.0937500
        k(    6) = (   0.1239008   0.2146025   0.0000000), wk =   0.1875000
        k(    7) = (   0.1239008   0.3576709   0.0000000), wk =   0.3750000
        k(    8) = (   0.1239008   0.5007392   0.0000000), wk =   0.3750000
        k(    9) = (   0.2478016   0.4292050   0.0000000), wk =   0.1875000
        k(   10) = (   0.2478016   0.5722734   0.0000000), wk =   0.1875000

     Check: negative core charge=   -0.000003

     Initial potential from superposition of free atoms

     starting charge      15.9998, renormalised to      16.0000

     negative rho (up, down):  1.375E-04 0.000E+00
     Starting wfcs are   16 randomized atomic wfcs

     Self-consistent Calculation

[...]

     iteration #  3     ecut=    60.00 Ry     beta= 0.70
     Davidson diagonalization with overlap
     c_bands:  3 eigenvalues not converged
     c_bands:  4 eigenvalues not converged
     c_bands:  2 eigenvalues not converged
     ethr =  1.15E-04,  avg # of iterations = 16.7

[...]

     total energy              =     -48.34361767 Ry
     estimated scf accuracy    <          1.9E-10 Ry

     iteration # 36     ecut=    60.00 Ry     beta= 0.70
     Davidson diagonalization with overlap
     ethr =  1.22E-12,  avg # of iterations =  4.5

[...]

     End of self-consistent calculation

[...]

          k =-0.0000 0.4292 0.0000 (  5702 PWs)   bands (ev):

[...]

          k = 0.2478 0.5723 0.0000 (  5662 PWs)   bands (ev):

   -13.9920 -13.9592 -13.0357 -13.0236 -10.2781 -10.2484  -1.8050  -1.5442
     0.2625   0.3045   9.8480   9.9275

     the Fermi energy is    -0.4643 ev

     WARNING: integrated charge=    16.00000276, expected=    16.00000000

!    total energy              =     -48.34361767 Ry
     estimated scf accuracy    <          5.2E-12 Ry
     smearing contrib. (-TS)   =       0.00000004 Ry
     internal energy E=F+TS    =     -48.34361771 Ry

     The total energy is F=E-TS. E is the sum of the following terms:
     one-electron contribution =    -508.66218022 Ry
     hartree contribution      =     257.94349576 Ry
     xc contribution           =     -17.10552209 Ry
     ewald contribution        =     219.48058883 Ry

     convergence has been achieved in  36 iterations

     negative rho (up, down):  1.515E-04 0.000E+00

     Forces acting on atoms (cartesian axes, Ry/au):

     atom    1 type  1   force =    -0.00000000    0.00000000    0.00003193
     atom    2 type  1   force =    -0.00000000   -0.00000000    0.00000614
     atom    3 type  1   force =    -0.00000000   -0.00000000   -0.00003193
     atom    4 type  1   force =     0.00000000    0.00000000   -0.00000614

     Total force =     0.000046     Total SCF correction =     0.000006
     SCF correction compared to forces is large: reduce conv_thr to get better values

     Computing stress (Cartesian axis) and pressure

     negative rho (up, down):  1.515E-04 0.000E+00
          total   stress  (Ry/bohr**3)                   (kbar)     P=       -0.16
   0.00000033  -0.00000000  -0.00000000            0.05       -0.00       -0.00
  -0.00000000   0.00000033  -0.00000000           -0.00        0.05       -0.00
  -0.00000000  -0.00000000  -0.00000389           -0.00       -0.00       -0.57

     Writing all to output data dir ../tmp/gr.save/

     General routines

     Parallel routines

   This run was terminated on:   0:24: 7   2Feb2022

   JOB DONE.