     Program PWSCF v.7.0 starts on  2Feb2022 at  0:27:10

     R & G space division:  proc/nbgrp/npool/nimage =       4

     Waiting for input...
     Reading input from standard input

     Current dimensions of program PWSCF are:
     Max number of different atomic species (ntypx) = 10
     Max number of k-points (npk) =  40000
     Max angular momentum in pseudopotentials (lmaxx) =  4

     IMPORTANT: XC functional enforced from input :
     Exchange-correlation= VDW-DF3-OPT2
                           (   1   4  46   0   4   0   0)
     Any further DFT definition will be discarded
     Please, verify this is what you really want

     Subspace diagonalization in iterative solution of the eigenvalue problem:
     a serial algorithm will be used

     Using Slab Decomposition

     bravais-lattice index     =            4
     lattice parameter (alat)  =       4.6561  a.u.
     unit-cell volume          =     709.5865 (a.u.)^3
     number of atoms/cell      =            4
     number of atomic types    =            1
     number of electrons       =        16.00
     number of Kohn-Sham states=           12
     kinetic-energy cutoff     =      60.0000  Ry
     charge density cutoff     =     240.0000  Ry
     scf convergence threshold =      1.0E-09
     mixing beta               =       0.7000
     number of iterations used =            8  plain     mixing
     energy convergence thresh.=      1.0E-05
     force convergence thresh. =      1.0E-04
     press convergence thresh. =      5.0E-02
     Exchange-correlation= VDW-DF3-OPT2
                           (   1   4  46   0   4   0   0)
     nstep                     =           50

     celldm(1)=   4.656107  celldm(2)=   0.000000  celldm(3)=   8.117194
     celldm(4)=   0.000000  celldm(5)=   0.000000  celldm(6)=   0.000000

     crystal axes: (cart. coord. in units of alat)
               a(1) = (   1.000000   0.000000   0.000000 )
               a(2) = (  -0.500000   0.866025   0.000000 )
               a(3) = (   0.000000   0.000000   8.117194 )

     reciprocal axes: (cart. coord. in units 2 pi/alat)
               b(1) = (  1.000000  0.577350  0.000000 )
               b(2) = (  0.000000  1.154701  0.000000 )
               b(3) = (  0.000000  0.000000  0.123195 )

     PseudoPot. # 1 for C  read from file:
     ../pseudo/C.pbe-n-rrkjus_psl.0.1.UPF
     MD5 check sum: 96a6a315177d77e6c95bf6fd3870f9e3
     Pseudo is Ultrasoft + core correction, Zval =  4.0
     Generated using &quot;atomic&quot; code by A. Dal Corso  v.6.3MaX
     Using radial grid of 1073 points,  4 beta functions with:
                l(1) =   0
                l(2) =   0
                l(3) =   1
                l(4) =   1
     Q(r) pseudized with 0 coefficients

     atomic species   valence    mass     pseudopotential
        C              4.00    12.01070     C ( 1.00)

     12 Sym. Ops., with inversion, found

   Cartesian axes

     site n.     atom                  positions (alat units)
         1           C   tau(   1) = (   0.0000000   0.0000000   3.3483426  )
         2           C   tau(   2) = (   0.0000000   0.5773503   3.3483426  )
         3           C   tau(   3) = (   0.0000000   0.0000000   4.7688516  )
         4           C   tau(   4) = (   0.5000000   0.2886751   4.7688516  )

     number of k points=    10  Marzari-Vanderbilt smearing, width (Ry)=  0.0200
                       cart. coord. in units 2pi/alat
        k(    1) = (   0.0000000   0.0000000   0.0000000), wk =   0.0312500
        k(    2) = (   0.0000000   0.1443376   0.0000000), wk =   0.1875000
        k(    3) = (   0.0000000   0.2886751   0.0000000), wk =   0.1875000
        k(    4) = (   0.0000000   0.4330127   0.0000000), wk =   0.1875000
        k(    5) = (   0.0000000  -0.5773503   0.0000000), wk =   0.0937500
        k(    6) = (   0.1250000   0.2165064   0.0000000), wk =   0.1875000
        k(    7) = (   0.1250000   0.3608439   0.0000000), wk =   0.3750000
        k(    8) = (   0.1250000   0.5051815   0.0000000), wk =   0.3750000
        k(    9) = (   0.2500000   0.4330127   0.0000000), wk =   0.1875000
        k(   10) = (   0.2500000   0.5773503   0.0000000), wk =   0.1875000

     Check: negative core charge=   -0.000004

     Initial potential from superposition of free atoms

     starting charge      15.9998, renormalised to      16.0000

     negative rho (up, down):  1.330E-04 0.000E+00

     %%%%%%%%%%%%%%%%%%%%%%%%%%%%%%%%%%%%%%%%%%%%%%%%%%%%%%%%%%%%%%%%%%%%%%%%
     %                                                                      %
     % You are using vdW-DF, which was implemented by the Thonhauser group. %
     % Please cite the following two papers that made this development      %
     % possible and the two reviews that describe the various versions:     %
     %                                                                      %
     %   T. Thonhauser et al., PRL 115, 136402 (2015).                      %
     %   T. Thonhauser et al., PRB 76, 125112 (2007).                       %
     %   K. Berland et al., Rep. Prog. Phys. 78, 066501 (2015).             %
     %   D.C. Langreth et al., J. Phys.: Condens. Matter 21, 084203 (2009). %
     %                                                                      %
     %                                                                      %
     % If you are calculating the stress with vdW-DF, please also cite:     %
     %                                                                      %
     %   R. Sabatini et al., J. Phys.: Condens. Matter 24, 424209 (2012).   %
     %                                                                      %
     %%%%%%%%%%%%%%%%%%%%%%%%%%%%%%%%%%%%%%%%%%%%%%%%%%%%%%%%%%%%%%%%%%%%%%%%

     Starting wfcs are   16 randomized atomic wfcs

     Self-consistent Calculation

     iteration #  1     ecut=    60.00 Ry     beta= 0.70
     Davidson diagonalization with overlap
     ethr =  1.00E-02,  avg # of iterations =  3.9

     Threshold (ethr) on eigenvalues was too large:
     Diagonalizing with lowered threshold

     Davidson diagonalization with overlap
     ethr =  6.92E-04,  avg # of iterations =  7.6

[...]

     total energy              =     -47.81977820 Ry
     estimated scf accuracy    <       0.37029334 Ry

[...]

     iteration #  3     ecut=    60.00 Ry     beta= 0.70
     Davidson diagonalization with overlap
     c_bands:  1 eigenvalues not converged
     c_bands:  1 eigenvalues not converged
     c_bands:  4 eigenvalues not converged
     c_bands:  2 eigenvalues not converged
     c_bands:  3 eigenvalues not converged
     c_bands:  2 eigenvalues not converged
     c_bands:  2 eigenvalues not converged
     ethr =  1.25E-04,  avg # of iterations = 17.3

[...]

     WARNING: integrated charge=    16.00000167, expected=    16.00000000

[...]

     End of self-consistent calculation

          k = 0.0000 0.0000 0.0000 (  5565 PWs)   bands (ev):

   -20.1691 -20.0571  -8.6712  -7.8500  -3.7037  -3.7037  -3.6979  -3.6979
     2.1527   2.5116   2.9674   4.2162

[...]

     the Fermi energy is    -0.4156 ev

[...]

!    total energy              =     -47.87452372 Ry
     estimated scf accuracy    <          6.2E-10 Ry
     smearing contrib. (-TS)   =       0.00000003 Ry
     internal energy E=F+TS    =     -47.87452375 Ry

     The total energy is F=E-TS. E is the sum of the following terms:
     one-electron contribution =    -523.21561450 Ry
     hartree contribution      =     265.19003264 Ry
     xc contribution           =     -16.65498464 Ry
     ewald contribution        =     226.80604275 Ry

     convergence has been achieved in  27 iterations

[...]

     Forces acting on atoms (cartesian axes, Ry/au):

     atom    1 type  1   force =     0.00000000    0.00000000    0.00114461
     atom    2 type  1   force =     0.00000000    0.00000000    0.00078267
     atom    3 type  1   force =     0.00000000    0.00000000   -0.00114461
     atom    4 type  1   force =     0.00000000    0.00000000   -0.00078267

     Total force =     0.001961     Total SCF correction =     0.000007

     Computing stress (Cartesian axis) and pressure

     negative rho (up, down):  1.778E-04 0.000E+00
          total   stress  (Ry/bohr**3)                   (kbar)     P=       -0.95
   0.00000206  -0.00000000   0.00000000            0.30       -0.00        0.00
  -0.00000000   0.00000206   0.00000000           -0.00        0.30        0.00
  -0.00000000  -0.00000000  -0.00002345           -0.00       -0.00       -3.45

     BFGS Geometry Optimization
     Energy error            =      0.0E+00 Ry
     Gradient error          =      1.1E-03 Ry/Bohr
     Cell gradient error     =      3.0E-01 kbar

     number of scf cycles    =   1
     number of bfgs steps    =   0

     enthalpy           new  =     -47.8745237242 Ry

     new trust radius        =       0.0011446069 bohr
     new conv_thr            =       0.0000000010 Ry

     new unit-cell volume =    709.65949 a.u.^3 (   105.16069 Ang^3 )
     density =      0.75862 g/cm^3

CELL_PARAMETERS (alat=  4.65610675)
   1.000051425  -0.000000000   0.000000000
  -0.500025712   0.866069939   0.000000000
   0.000000000   0.000000000   8.117194158

ATOMIC_POSITIONS (crystal)
C             0.0000000000        0.0000000000        0.4125302850
C             0.3333333330        0.6666666660        0.4125207085
C             0.0000000000        0.0000000000        0.5874697150
C             0.6666666660        0.3333333330        0.5874792915

     Writing config-only to output data dir ../tmp/gr.save/
     NEW-OLD atomic charge density approx. for the potential

[...]

     negative rho (up, down):  1.779E-04 0.000E+00
     extrapolated charge   16.00165, renormalised to   16.00000

[...]

          k =-0.0000-0.5773 0.0000 (  5604 PWs)   bands (ev):

[...]

     Energy error            =      4.0E-06 Ry
     Gradient error          =      1.0E-03 Ry/Bohr
     Cell gradient error     =      7.7E-02 kbar

[...]

     enthalpy           old  =     -47.8745237242 Ry
     enthalpy           new  =     -47.8745276942 Ry

     CASE: enthalpy          _new < enthalpy          _old

     WARNING: bfgs curvature condition failed, Theta= 0.834
     new trust radius        =       0.0012590676 bohr
     new conv_thr            =            1.0E-11 Ry

[...]

     Total force =     0.000163     Total SCF correction =     0.000008

[...]

     number of scf cycles    =  16
     number of bfgs steps    =  15

     enthalpy           old  =     -47.8749436900 Ry
     enthalpy           new  =     -47.8749461155 Ry

     CASE: enthalpy          _new < enthalpy          _old

     new trust radius        =       0.0020934010 bohr
     new conv_thr            =            1.0E-11 Ry

     new unit-cell volume =    709.59132 a.u.^3 (   105.15059 Ang^3 )
     density =      0.75869 g/cm^3

[...]

ATOMIC_POSITIONS (crystal)
C             0.0000000000        0.0000000000        0.4173970798
C             0.3333333330        0.6666666660        0.4173713408
C             0.0000000000        0.0000000000        0.5826029202
C             0.6666666660        0.3333333330        0.5826286592

     Writing config-only to output data dir ../tmp/gr.save/
     NEW-OLD atomic charge density approx. for the potential

[...]

     negative rho (up, down):  1.754E-04 0.000E+00
     extrapolated charge   15.99901, renormalised to   16.00000

[...]

     Threshold (ethr) on eigenvalues was too large:
     Diagonalizing with lowered threshold

     Davidson diagonalization with overlap
     ethr =  7.12E-09,  avg # of iterations =  8.3

[...]

     Total force =     0.000012     Total SCF correction =     0.000010
     SCF correction compared to forces is large: reduce conv_thr to get better values

[...]

     Energy error            =      1.4E-07 Ry
     Gradient error          =      7.0E-06 Ry/Bohr
     Cell gradient error     =      7.4E-03 kbar

     bfgs converged in  17 scf cycles and  16 bfgs steps
     (criteria: energy <  1.0E-05 Ry, force <  1.0E-04Ry/Bohr, cell <  5.0E-02kbar)

     End of BFGS Geometry Optimization

     Final enthalpy           =     -47.8749462521 Ry

     File ../tmp/gr.bfgs deleted, as requested
Begin final coordinates
     new unit-cell volume =    709.59132 a.u.^3 (   105.15059 Ang^3 )
     density =      0.75869 g/cm^3

CELL_PARAMETERS (alat=  4.65610675)
   1.000003390   0.000000000   0.000000000
  -0.500001695   0.866028340   0.000000000
   0.000000000   0.000000000   8.117194158

ATOMIC_POSITIONS (crystal)
C             0.0000000000        0.0000000000        0.4173970798
C             0.3333333330        0.6666666660        0.4173713408
C             0.0000000000        0.0000000000        0.5826029202
C             0.6666666660        0.3333333330        0.5826286592
End final coordinates

     Writing config-only to output data dir ../tmp/gr.save/

     Final scf calculation at the relaxed structure.
     The G-vectors are recalculated for the final unit cell
     Results may differ from those at the preceding step.

     Using Slab Decomposition

     bravais-lattice index     =            4
     lattice parameter (alat)  =       4.6561  a.u.
     unit-cell volume          =     709.5913 (a.u.)^3
     number of atoms/cell      =            4
     number of atomic types    =            1
     number of electrons       =        16.00
     number of Kohn-Sham states=           12
     kinetic-energy cutoff     =      60.0000  Ry
     charge density cutoff     =     240.0000  Ry
     scf convergence threshold =      1.0E-11
     mixing beta               =       0.7000
     number of iterations used =            8  plain     mixing
     press convergence thresh. =      5.0E-02
     Exchange-correlation= VDW-DF3-OPT2
                           (   1   4  46   0   4   0   0)

     celldm(1)=   4.656107  celldm(2)=   0.000000  celldm(3)=   8.117194
     celldm(4)=   0.000000  celldm(5)=   0.000000  celldm(6)=   0.000000

     crystal axes: (cart. coord. in units of alat)
               a(1) = (   1.000003   0.000000   0.000000 )
               a(2) = (  -0.500002   0.866028   0.000000 )
               a(3) = (   0.000000   0.000000   8.117194 )

     reciprocal axes: (cart. coord. in units 2 pi/alat)
               b(1) = (  0.999997  0.577348  0.000000 )
               b(2) = ( -0.000000  1.154697  0.000000 )
               b(3) = (  0.000000  0.000000  0.123195 )

     PseudoPot. # 1 for C  read from file:
     ../pseudo/C.pbe-n-rrkjus_psl.0.1.UPF
     MD5 check sum: 96a6a315177d77e6c95bf6fd3870f9e3
     Pseudo is Ultrasoft + core correction, Zval =  4.0
     Generated using &quot;atomic&quot; code by A. Dal Corso  v.6.3MaX
     Using radial grid of 1073 points,  4 beta functions with:
                l(1) =   0
                l(2) =   0
                l(3) =   1
                l(4) =   1
     Q(r) pseudized with 0 coefficients

     atomic species   valence    mass     pseudopotential
        C              4.00    12.01070     C ( 1.00)

     12 Sym. Ops., with inversion, found

   Cartesian axes

     site n.     atom                  positions (alat units)
         1           C   tau(   1) = (   0.0000000   0.0000000   3.3880931  )
         2           C   tau(   2) = (   0.0000000   0.5773522   3.3878842  )
         3           C   tau(   3) = (   0.0000000   0.0000000   4.7291010  )
         4           C   tau(   4) = (   0.5000017   0.2886761   4.7293099  )

     number of k points=    10  Marzari-Vanderbilt smearing, width (Ry)=  0.0200
                       cart. coord. in units 2pi/alat
        k(    1) = (   0.0000000   0.0000000   0.0000000), wk =   0.0312500
        k(    2) = (  -0.0000000   0.1443371   0.0000000), wk =   0.1875000
        k(    3) = (  -0.0000000   0.2886742   0.0000000), wk =   0.1875000
        k(    4) = (  -0.0000000   0.4330112   0.0000000), wk =   0.1875000
        k(    5) = (   0.0000000  -0.5773483   0.0000000), wk =   0.0937500
        k(    6) = (   0.1249996   0.2165056   0.0000000), wk =   0.1875000
        k(    7) = (   0.1249996   0.3608427   0.0000000), wk =   0.3750000
        k(    8) = (   0.1249996   0.5051798   0.0000000), wk =   0.3750000
        k(    9) = (   0.2499992   0.4330112   0.0000000), wk =   0.1875000
        k(   10) = (   0.2499992   0.5773483   0.0000000), wk =   0.1875000

     Check: negative core charge=   -0.000004

     Initial potential from superposition of free atoms

     starting charge      15.9998, renormalised to      16.0000

     negative rho (up, down):  1.371E-04 0.000E+00
     Starting wfcs are   16 randomized atomic wfcs

     Self-consistent Calculation

[...]

     iteration #  7     ecut=    60.00 Ry     beta= 0.70
     Davidson diagonalization with overlap
     c_bands:  2 eigenvalues not converged
     ethr =  4.06E-06,  avg # of iterations =  9.3

[...]

     total energy              =     -47.87494648 Ry
     estimated scf accuracy    <          1.7E-10 Ry

     iteration # 40     ecut=    60.00 Ry     beta= 0.70
     Davidson diagonalization with overlap
     ethr =  9.01E-13,  avg # of iterations =  4.0

[...]

     End of self-consistent calculation

[...]

          k =-0.0000 0.4330 0.0000 (  5594 PWs)   bands (ev):

[...]

          k = 0.2500 0.5773 0.0000 (  5540 PWs)   bands (ev):

   -13.9728 -13.9129 -13.0829 -13.0571 -10.4053 -10.3456  -1.8785  -1.4929
     0.3105   0.3883   9.9318  10.0966

     the Fermi energy is    -0.4110 ev

     WARNING: integrated charge=    16.00000264, expected=    16.00000000

!    total energy              =     -47.87494648 Ry
     estimated scf accuracy    <          8.6E-13 Ry
     smearing contrib. (-TS)   =       0.00000004 Ry
     internal energy E=F+TS    =     -47.87494652 Ry

     The total energy is F=E-TS. E is the sum of the following terms:
     one-electron contribution =    -544.06318700 Ry
     hartree contribution      =     275.61115510 Ry
     xc contribution           =     -16.66072149 Ry
     ewald contribution        =     237.23780687 Ry

     convergence has been achieved in  40 iterations

     negative rho (up, down):  1.753E-04 0.000E+00

     Forces acting on atoms (cartesian axes, Ry/au):

     atom    1 type  1   force =     0.00000000   -0.00000000    0.00000450
     atom    2 type  1   force =    -0.00000000    0.00000000    0.00000238
     atom    3 type  1   force =     0.00000000    0.00000000   -0.00000450
     atom    4 type  1   force =     0.00000000    0.00000000   -0.00000238

     Total force =     0.000007     Total SCF correction =     0.000004
     SCF correction compared to forces is large: reduce conv_thr to get better values

     Computing stress (Cartesian axis) and pressure

     negative rho (up, down):  1.753E-04 0.000E+00
          total   stress  (Ry/bohr**3)                   (kbar)     P=       -0.26
   0.00000005  -0.00000000   0.00000000            0.01       -0.00        0.00
  -0.00000000   0.00000005   0.00000000           -0.00        0.01        0.00
   0.00000000   0.00000000  -0.00000537            0.00        0.00       -0.79

     Writing all to output data dir ../tmp/gr.save/

     General routines

     Parallel routines

   This run was terminated on:   0:29: 4   2Feb2022

   JOB DONE.