     Program PWSCF v.7.0 starts on  2Feb2022 at  0:24: 8

     R & G space division:  proc/nbgrp/npool/nimage =       4

     Waiting for input...
     Reading input from standard input

     Current dimensions of program PWSCF are:
     Max number of different atomic species (ntypx) = 10
     Max number of k-points (npk) =  40000
     Max angular momentum in pseudopotentials (lmaxx) =  4

     IMPORTANT: XC functional enforced from input :
     Exchange-correlation= VDW-DF3-OPT1
                           (   1   4  45   0   3   0   0)
     Any further DFT definition will be discarded
     Please, verify this is what you really want

     Subspace diagonalization in iterative solution of the eigenvalue problem:
     a serial algorithm will be used

     Using Slab Decomposition

     bravais-lattice index     =            4
     lattice parameter (alat)  =       4.6561  a.u.
     unit-cell volume          =     709.5865 (a.u.)^3
     number of atoms/cell      =            4
     number of atomic types    =            1
     number of electrons       =        16.00
     number of Kohn-Sham states=           12
     kinetic-energy cutoff     =      60.0000  Ry
     charge density cutoff     =     240.0000  Ry
     scf convergence threshold =      1.0E-09
     mixing beta               =       0.7000
     number of iterations used =            8  plain     mixing
     energy convergence thresh.=      1.0E-05
     force convergence thresh. =      1.0E-04
     press convergence thresh. =      5.0E-02
     Exchange-correlation= VDW-DF3-OPT1
                           (   1   4  45   0   3   0   0)
     nstep                     =           50

     celldm(1)=   4.656107  celldm(2)=   0.000000  celldm(3)=   8.117194
     celldm(4)=   0.000000  celldm(5)=   0.000000  celldm(6)=   0.000000

     crystal axes: (cart. coord. in units of alat)
               a(1) = (   1.000000   0.000000   0.000000 )
               a(2) = (  -0.500000   0.866025   0.000000 )
               a(3) = (   0.000000   0.000000   8.117194 )

     reciprocal axes: (cart. coord. in units 2 pi/alat)
               b(1) = (  1.000000  0.577350  0.000000 )
               b(2) = (  0.000000  1.154701  0.000000 )
               b(3) = (  0.000000  0.000000  0.123195 )

     PseudoPot. # 1 for C  read from file:
     ../pseudo/C.pbe-n-rrkjus_psl.0.1.UPF
     MD5 check sum: 96a6a315177d77e6c95bf6fd3870f9e3
     Pseudo is Ultrasoft + core correction, Zval =  4.0
     Generated using &quot;atomic&quot; code by A. Dal Corso  v.6.3MaX
     Using radial grid of 1073 points,  4 beta functions with:
                l(1) =   0
                l(2) =   0
                l(3) =   1
                l(4) =   1
     Q(r) pseudized with 0 coefficients

     atomic species   valence    mass     pseudopotential
        C              4.00    12.01070     C ( 1.00)

     12 Sym. Ops., with inversion, found

   Cartesian axes

     site n.     atom                  positions (alat units)
         1           C   tau(   1) = (   0.0000000   0.0000000   3.3483426  )
         2           C   tau(   2) = (   0.0000000   0.5773503   3.3483426  )
         3           C   tau(   3) = (   0.0000000   0.0000000   4.7688516  )
         4           C   tau(   4) = (   0.5000000   0.2886751   4.7688516  )

     number of k points=    10  Marzari-Vanderbilt smearing, width (Ry)=  0.0200
                       cart. coord. in units 2pi/alat
        k(    1) = (   0.0000000   0.0000000   0.0000000), wk =   0.0312500
        k(    2) = (   0.0000000   0.1443376   0.0000000), wk =   0.1875000
        k(    3) = (   0.0000000   0.2886751   0.0000000), wk =   0.1875000
        k(    4) = (   0.0000000   0.4330127   0.0000000), wk =   0.1875000
        k(    5) = (   0.0000000  -0.5773503   0.0000000), wk =   0.0937500
        k(    6) = (   0.1250000   0.2165064   0.0000000), wk =   0.1875000
        k(    7) = (   0.1250000   0.3608439   0.0000000), wk =   0.3750000
        k(    8) = (   0.1250000   0.5051815   0.0000000), wk =   0.3750000
        k(    9) = (   0.2500000   0.4330127   0.0000000), wk =   0.1875000
        k(   10) = (   0.2500000   0.5773503   0.0000000), wk =   0.1875000

     Check: negative core charge=   -0.000004

     Initial potential from superposition of free atoms

     starting charge      15.9998, renormalised to      16.0000

     negative rho (up, down):  1.330E-04 0.000E+00

     %%%%%%%%%%%%%%%%%%%%%%%%%%%%%%%%%%%%%%%%%%%%%%%%%%%%%%%%%%%%%%%%%%%%%%%%
     %                                                                      %
     % You are using vdW-DF, which was implemented by the Thonhauser group. %
     % Please cite the following two papers that made this development      %
     % possible and the two reviews that describe the various versions:     %
     %                                                                      %
     %   T. Thonhauser et al., PRL 115, 136402 (2015).                      %
     %   T. Thonhauser et al., PRB 76, 125112 (2007).                       %
     %   K. Berland et al., Rep. Prog. Phys. 78, 066501 (2015).             %
     %   D.C. Langreth et al., J. Phys.: Condens. Matter 21, 084203 (2009). %
     %                                                                      %
     %                                                                      %
     % If you are calculating the stress with vdW-DF, please also cite:     %
     %                                                                      %
     %   R. Sabatini et al., J. Phys.: Condens. Matter 24, 424209 (2012).   %
     %                                                                      %
     %%%%%%%%%%%%%%%%%%%%%%%%%%%%%%%%%%%%%%%%%%%%%%%%%%%%%%%%%%%%%%%%%%%%%%%%

     Starting wfcs are   16 randomized atomic wfcs

     Self-consistent Calculation

     iteration #  1     ecut=    60.00 Ry     beta= 0.70
     Davidson diagonalization with overlap
     ethr =  1.00E-02,  avg # of iterations =  3.9

     Threshold (ethr) on eigenvalues was too large:
     Diagonalizing with lowered threshold

     Davidson diagonalization with overlap
     ethr =  6.90E-04,  avg # of iterations =  7.0

[...]

     total energy              =     -47.81150422 Ry
     estimated scf accuracy    <       0.36469124 Ry

[...]

     iteration #  3     ecut=    60.00 Ry     beta= 0.70
     Davidson diagonalization with overlap
     c_bands:  1 eigenvalues not converged
     c_bands:  3 eigenvalues not converged
     c_bands:  4 eigenvalues not converged
     c_bands:  2 eigenvalues not converged
     c_bands:  2 eigenvalues not converged
     c_bands:  2 eigenvalues not converged
     ethr =  1.26E-04,  avg # of iterations = 16.9

[...]

     WARNING: integrated charge=    16.00000173, expected=    16.00000000

[...]

     End of self-consistent calculation

          k = 0.0000 0.0000 0.0000 (  5565 PWs)   bands (ev):

   -20.1759 -20.0644  -8.6767  -7.8606  -3.6936  -3.6936  -3.6877  -3.6877
     1.9999   2.3940   2.7538   4.0331

[...]

     the Fermi energy is    -0.4231 ev

[...]

!    total energy              =     -47.86454915 Ry
     estimated scf accuracy    <          4.0E-11 Ry
     smearing contrib. (-TS)   =       0.00000003 Ry
     internal energy E=F+TS    =     -47.86454917 Ry

     The total energy is F=E-TS. E is the sum of the following terms:
     one-electron contribution =    -523.24610570 Ry
     hartree contribution      =     265.21792630 Ry
     xc contribution           =     -16.64241253 Ry
     ewald contribution        =     226.80604275 Ry

     convergence has been achieved in  34 iterations

[...]

     Forces acting on atoms (cartesian axes, Ry/au):

     atom    1 type  1   force =     0.00000000    0.00000000    0.00091229
     atom    2 type  1   force =     0.00000000    0.00000000    0.00059029
     atom    3 type  1   force =     0.00000000    0.00000000   -0.00091229
     atom    4 type  1   force =     0.00000000    0.00000000   -0.00059029

     Total force =     0.001537     Total SCF correction =     0.000007

     Computing stress (Cartesian axis) and pressure

     negative rho (up, down):  1.786E-04 0.000E+00
          total   stress  (Ry/bohr**3)                   (kbar)     P=       -4.70
  -0.00003434   0.00000000   0.00000000           -5.05        0.00        0.00
   0.00000000  -0.00003434   0.00000000            0.00       -5.05        0.00
  -0.00000000  -0.00000000  -0.00002718           -0.00       -0.00       -4.00

     BFGS Geometry Optimization
     Energy error            =      0.0E+00 Ry
     Gradient error          =      9.1E-04 Ry/Bohr
     Cell gradient error     =      5.1E+00 kbar

     number of scf cycles    =   1
     number of bfgs steps    =   0

     enthalpy           new  =     -47.8645491486 Ry

     new trust radius        =       0.0045735638 bohr
     new conv_thr            =       0.0000000010 Ry

     new unit-cell volume =    708.36873 a.u.^3 (   104.96942 Ang^3 )
     density =      0.76000 g/cm^3

CELL_PARAMETERS (alat=  4.65610675)
   0.999141536   0.000000000   0.000000000
  -0.499570768   0.865281952   0.000000000
   0.000000000   0.000000000   8.117194158

ATOMIC_POSITIONS (crystal)
C             0.0000000000        0.0000000000        0.4125241381
C             0.3333333330        0.6666666660        0.4125156183
C             0.0000000000        0.0000000000        0.5874758619
C             0.6666666660        0.3333333330        0.5874843817

     Writing config-only to output data dir ../tmp/gr.save/
     NEW-OLD atomic charge density approx. for the potential

[...]

     negative rho (up, down):  1.816E-04 0.000E+00
     extrapolated charge   15.97250, renormalised to   16.00000

[...]

          k =-0.0000 0.1445 0.0000 (  5582 PWs)   bands (ev):

[...]

     Energy error            =      2.6E-05 Ry
     Gradient error          =      8.6E-04 Ry/Bohr
     Cell gradient error     =      1.5E+00 kbar

[...]

     enthalpy           old  =     -47.8645491486 Ry
     enthalpy           new  =     -47.8645749367 Ry

     CASE: enthalpy          _new < enthalpy          _old

[...]

     WARNING: bfgs curvature condition failed, Theta= 0.920
     new trust radius        =       0.0015114546 bohr
     new conv_thr            =            1.0E-11 Ry

[...]

     CASE: enthalpy          _new > enthalpy          _old

[...]

     CASE: enthalpy          _new < enthalpy          _old

     new trust radius        =       0.0003855699 bohr
     new conv_thr            =            1.0E-11 Ry

[...]

     number of scf cycles    =  24
     number of bfgs steps    =  21

     enthalpy           old  =     -47.8649521061 Ry
     enthalpy           new  =     -47.8649517992 Ry

     CASE: enthalpy          _new > enthalpy          _old

     new trust radius        =       0.0000374407 bohr

     trust_radius < trust_radius_min

     resetting bfgs history

     new conv_thr            =            1.0E-11 Ry

     new unit-cell volume =    707.78557 a.u.^3 (   104.88300 Ang^3 )
     density =      0.76063 g/cm^3

[...]

ATOMIC_POSITIONS (crystal)
C            -0.0000000000       -0.0000000000        0.4177305560
C             0.3333333330        0.6666666660        0.4177177963
C            -0.0000000000        0.0000000000        0.5822694440
C             0.6666666660        0.3333333330        0.5822822037

     Writing config-only to output data dir ../tmp/gr.save/
     NEW-OLD atomic charge density approx. for the potential

[...]

     negative rho (up, down):  1.771E-04 0.000E+00
     extrapolated charge   16.00035, renormalised to   16.00000

[...]

     Threshold (ethr) on eigenvalues was too large:
     Diagonalizing with lowered threshold

     Davidson diagonalization with overlap
     ethr =  2.67E-09,  avg # of iterations =  4.5

[...]

     Energy error            =      4.1E-08 Ry
     Gradient error          =      5.8E-05 Ry/Bohr
     Cell gradient error     =      3.7E-02 kbar

     bfgs converged in  25 scf cycles and  21 bfgs steps
     (criteria: energy <  1.0E-05 Ry, force <  1.0E-04Ry/Bohr, cell <  5.0E-02kbar)

     End of BFGS Geometry Optimization

     Final enthalpy           =     -47.8649520646 Ry

     File ../tmp/gr.bfgs deleted, as requested
Begin final coordinates
     new unit-cell volume =    707.78557 a.u.^3 (   104.88300 Ang^3 )
     density =      0.76063 g/cm^3

CELL_PARAMETERS (alat=  4.65610675)
   0.998730184   0.000000000   0.000000000
  -0.499365092   0.864925711   0.000000000
   0.000000000   0.000000000   8.117194158

ATOMIC_POSITIONS (crystal)
C            -0.0000000000       -0.0000000000        0.4177305560
C             0.3333333330        0.6666666660        0.4177177963
C            -0.0000000000        0.0000000000        0.5822694440
C             0.6666666660        0.3333333330        0.5822822037
End final coordinates

     Writing config-only to output data dir ../tmp/gr.save/

     Final scf calculation at the relaxed structure.
     The G-vectors are recalculated for the final unit cell
     Results may differ from those at the preceding step.

     Using Slab Decomposition

     bravais-lattice index     =            4
     lattice parameter (alat)  =       4.6561  a.u.
     unit-cell volume          =     707.7856 (a.u.)^3
     number of atoms/cell      =            4
     number of atomic types    =            1
     number of electrons       =        16.00
     number of Kohn-Sham states=           12
     kinetic-energy cutoff     =      60.0000  Ry
     charge density cutoff     =     240.0000  Ry
     scf convergence threshold =      1.0E-11
     mixing beta               =       0.7000
     number of iterations used =            8  plain     mixing
     press convergence thresh. =      5.0E-02
     Exchange-correlation= VDW-DF3-OPT1
                           (   1   4  45   0   3   0   0)

     celldm(1)=   4.656107  celldm(2)=   0.000000  celldm(3)=   8.117194
     celldm(4)=   0.000000  celldm(5)=   0.000000  celldm(6)=   0.000000

     crystal axes: (cart. coord. in units of alat)
               a(1) = (   0.998730   0.000000   0.000000 )
               a(2) = (  -0.499365   0.864926   0.000000 )
               a(3) = (   0.000000   0.000000   8.117194 )

     reciprocal axes: (cart. coord. in units 2 pi/alat)
               b(1) = (  1.001271  0.578084  0.000000 )
               b(2) = ( -0.000000  1.156169  0.000000 )
               b(3) = (  0.000000  0.000000  0.123195 )

     PseudoPot. # 1 for C  read from file:
     ../pseudo/C.pbe-n-rrkjus_psl.0.1.UPF
     MD5 check sum: 96a6a315177d77e6c95bf6fd3870f9e3
     Pseudo is Ultrasoft + core correction, Zval =  4.0
     Generated using &quot;atomic&quot; code by A. Dal Corso  v.6.3MaX
     Using radial grid of 1073 points,  4 beta functions with:
                l(1) =   0
                l(2) =   0
                l(3) =   1
                l(4) =   1
     Q(r) pseudized with 0 coefficients

     atomic species   valence    mass     pseudopotential
        C              4.00    12.01070     C ( 1.00)

     12 Sym. Ops., with inversion, found

   Cartesian axes

     site n.     atom                  positions (alat units)
         1           C   tau(   1) = (  -0.0000000  -0.0000000   3.3908000  )
         2           C   tau(   2) = (   0.0000000   0.5766171   3.3906965  )
         3           C   tau(   3) = (  -0.0000000   0.0000000   4.7263941  )
         4           C   tau(   4) = (   0.4993651   0.2883086   4.7264977  )

     number of k points=    10  Marzari-Vanderbilt smearing, width (Ry)=  0.0200
                       cart. coord. in units 2pi/alat
        k(    1) = (   0.0000000   0.0000000   0.0000000), wk =   0.0312500
        k(    2) = (  -0.0000000   0.1445211   0.0000000), wk =   0.1875000
        k(    3) = (  -0.0000000   0.2890422   0.0000000), wk =   0.1875000
        k(    4) = (  -0.0000000   0.4335632   0.0000000), wk =   0.1875000
        k(    5) = (   0.0000000  -0.5780843   0.0000000), wk =   0.0937500
        k(    6) = (   0.1251589   0.2167816   0.0000000), wk =   0.1875000
        k(    7) = (   0.1251589   0.3613027   0.0000000), wk =   0.3750000
        k(    8) = (   0.1251589   0.5058238   0.0000000), wk =   0.3750000
        k(    9) = (   0.2503179   0.4335632   0.0000000), wk =   0.1875000
        k(   10) = (   0.2503179   0.5780843   0.0000000), wk =   0.1875000

     Check: negative core charge=   -0.000004

     Initial potential from superposition of free atoms

     starting charge      15.9998, renormalised to      16.0000

     negative rho (up, down):  1.409E-04 0.000E+00
     Starting wfcs are   16 randomized atomic wfcs

     Self-consistent Calculation

[...]

     iteration #  7     ecut=    60.00 Ry     beta= 0.70
     Davidson diagonalization with overlap
     c_bands:  2 eigenvalues not converged
     ethr =  5.28E-06,  avg # of iterations =  8.9

[...]

     total energy              =     -47.86493571 Ry
     estimated scf accuracy    <          5.6E-11 Ry

     iteration # 37     ecut=    60.00 Ry     beta= 0.70
     Davidson diagonalization with overlap
     ethr =  3.09E-13,  avg # of iterations =  1.0

[...]

     End of self-consistent calculation

[...]

          k =-0.0000 0.4336 0.0000 (  5568 PWs)   bands (ev):

[...]

          k = 0.2503 0.5781 0.0000 (  5530 PWs)   bands (ev):

   -13.9656 -13.9039 -13.0866 -13.0594 -10.4180 -10.3559  -1.8762  -1.4837
     0.3236   0.4031  10.0107  10.1648

     the Fermi energy is    -0.3997 ev

     WARNING: integrated charge=    16.00000251, expected=    16.00000000

!    total energy              =     -47.86493571 Ry
     estimated scf accuracy    <          3.2E-12 Ry
     smearing contrib. (-TS)   =       0.00000004 Ry
     internal energy E=F+TS    =     -47.86493575 Ry

     The total energy is F=E-TS. E is the sum of the following terms:
     one-electron contribution =    -546.98084447 Ry
     hartree contribution      =     277.09218253 Ry
     xc contribution           =     -16.65994280 Ry
     ewald contribution        =     238.68366899 Ry

     convergence has been achieved in  37 iterations

     negative rho (up, down):  1.774E-04 0.000E+00

     Forces acting on atoms (cartesian axes, Ry/au):

     atom    1 type  1   force =     0.00000000   -0.00000000   -0.00005788
     atom    2 type  1   force =     0.00000000   -0.00000000   -0.00023880
     atom    3 type  1   force =     0.00000000    0.00000000    0.00005788
     atom    4 type  1   force =     0.00000000    0.00000000    0.00023880

     Total force =     0.000347     Total SCF correction =     0.000003

     Computing stress (Cartesian axis) and pressure

     negative rho (up, down):  1.774E-04 0.000E+00
          total   stress  (Ry/bohr**3)                   (kbar)     P=       -0.43
   0.00000001   0.00000000  -0.00000000            0.00        0.00       -0.00
   0.00000000   0.00000001  -0.00000000            0.00        0.00       -0.00
   0.00000000   0.00000000  -0.00000885            0.00        0.00       -1.30

     Writing all to output data dir ../tmp/gr.save/

     General routines

     Parallel routines

   This run was terminated on:   0:27: 9   2Feb2022

   JOB DONE.