     Program PWSCF v.7.0 starts on  1Feb2022 at  0:36:42

     R & G space division:  proc/nbgrp/npool/nimage =       4

     Waiting for input...
     Reading input from standard input

     Current dimensions of program PWSCF are:
     Max number of different atomic species (ntypx) = 10
     Max number of k-points (npk) =  40000
     Max angular momentum in pseudopotentials (lmaxx) =  4

     Subspace diagonalization in iterative solution of the eigenvalue problem:
     a serial algorithm will be used

     Using Slab Decomposition

     bravais-lattice index     =            4
     lattice parameter (alat)  =       4.6561  a.u.
     unit-cell volume          =     532.1899 (a.u.)^3
     number of atoms/cell      =            2
     number of atomic types    =            1
     number of electrons       =         8.00
     number of Kohn-Sham states=            8
     kinetic-energy cutoff     =      80.0000  Ry
     charge density cutoff     =     320.0000  Ry
     scf convergence threshold =      1.0E-09
     mixing beta               =       0.7000
     number of iterations used =            8  plain     mixing
     energy convergence thresh.=      1.0E-05
     force convergence thresh. =      1.0E-04
     press convergence thresh. =      5.0E-02
     Exchange-correlation= SLA-PW-PBX-PBC
                           (   1   4   3   4   0   0   0)
     nstep                     =           50

     celldm(1)=   4.656107  celldm(2)=   0.000000  celldm(3)=   6.087896
     celldm(4)=   0.000000  celldm(5)=   0.000000  celldm(6)=   0.000000

     crystal axes: (cart. coord. in units of alat)
               a(1) = (   1.000000   0.000000   0.000000 )
               a(2) = (  -0.500000   0.866025   0.000000 )
               a(3) = (   0.000000   0.000000   6.087896 )

     reciprocal axes: (cart. coord. in units 2 pi/alat)
               b(1) = (  1.000000  0.577350  0.000000 )
               b(2) = (  0.000000  1.154701  0.000000 )
               b(3) = (  0.000000  0.000000  0.164260 )

     PseudoPot. # 1 for C  read from file:
     ../pseudo/C.pbe-hgh.UPF
     MD5 check sum: ca26ff84b356733038fc2f5c468d1892
     Pseudo is Norm-conserving, Zval =  4.0
     Generated in analytical, separable form
     Using radial grid of 1073 points,  1 beta functions with:
                l(1) =   0

     atomic species   valence    mass     pseudopotential
        C              4.00    12.01070     C ( 1.00)

     24 Sym. Ops., with inversion, found

   Cartesian axes

     site n.     atom                  positions (alat units)
         1           C   tau(   1) = (   0.0000000   0.5773503   3.0439478  )
         2           C   tau(   2) = (   0.5000000   0.2886751   3.0439478  )

     number of k points=    19  Marzari-Vanderbilt smearing, width (Ry)=  0.0200
                       cart. coord. in units 2pi/alat
        k(    1) = (   0.0000000   0.0000000   0.0000000), wk =   0.0138889
        k(    2) = (   0.0000000   0.0962250   0.0000000), wk =   0.0833333
        k(    3) = (   0.0000000   0.1924501   0.0000000), wk =   0.0833333
        k(    4) = (   0.0000000   0.2886751   0.0000000), wk =   0.0833333
        k(    5) = (   0.0000000   0.3849002   0.0000000), wk =   0.0833333
        k(    6) = (   0.0000000   0.4811252   0.0000000), wk =   0.0833333
        k(    7) = (   0.0000000  -0.5773503   0.0000000), wk =   0.0416667
        k(    8) = (   0.0833333   0.1443376   0.0000000), wk =   0.0833333
        k(    9) = (   0.0833333   0.2405626   0.0000000), wk =   0.1666667
        k(   10) = (   0.0833333   0.3367877   0.0000000), wk =   0.1666667
        k(   11) = (   0.0833333   0.4330127   0.0000000), wk =   0.1666667
        k(   12) = (   0.0833333   0.5292377   0.0000000), wk =   0.1666667
        k(   13) = (   0.1666667   0.2886751   0.0000000), wk =   0.0833333
        k(   14) = (   0.1666667   0.3849002   0.0000000), wk =   0.1666667
        k(   15) = (   0.1666667   0.4811252   0.0000000), wk =   0.1666667
        k(   16) = (   0.1666667   0.5773503   0.0000000), wk =   0.0833333
        k(   17) = (   0.2500000   0.4330127   0.0000000), wk =   0.0833333
        k(   18) = (   0.2500000   0.5292377   0.0000000), wk =   0.1666667
        k(   19) = (   0.3333333   0.5773503   0.0000000), wk =   0.0277778

     Initial potential from superposition of free atoms

     starting charge       7.9999, renormalised to       8.0000

     negative rho (up, down):  2.835E-05 0.000E+00
     Starting wfcs are    8 randomized atomic wfcs

     Self-consistent Calculation

     iteration #  1     ecut=    80.00 Ry     beta= 0.70
     Davidson diagonalization with overlap
     ethr =  1.00E-02,  avg # of iterations =  6.8

     negative rho (up, down):  9.938E-07 0.000E+00

     total energy              =     -22.74376889 Ry
     estimated scf accuracy    <       0.19615845 Ry

[...]

     End of self-consistent calculation

          k = 0.0000 0.0000 0.0000 (  6489 PWs)   bands (ev):

   -21.2581  -9.3417  -4.7707  -4.7707   1.5343   2.4375   2.9435   4.8120

[...]

     the Fermi energy is    -1.6612 ev

!    total energy              =     -22.77187016 Ry
     estimated scf accuracy    <          1.3E-11 Ry
     smearing contrib. (-TS)   =      -0.00018232 Ry
     internal energy E=F+TS    =     -22.77168784 Ry

     The total energy is F=E-TS. E is the sum of the following terms:
     one-electron contribution =    -157.51690630 Ry
     hartree contribution      =      80.12791537 Ry
     xc contribution           =      -7.01234403 Ry
     ewald contribution        =      61.62964712 Ry

     convergence has been achieved in   7 iterations

     Forces acting on atoms (cartesian axes, Ry/au):

     atom    1 type  1   force =     0.00000000   -0.00000000    0.00000000
     atom    2 type  1   force =     0.00000000    0.00000000    0.00000000

     Total force =     0.000000     Total SCF correction =     0.000000

     Computing stress (Cartesian axis) and pressure

          total   stress  (Ry/bohr**3)                   (kbar)     P=      -14.37
  -0.00008777   0.00000000   0.00000000          -12.91        0.00        0.00
   0.00000000  -0.00008777   0.00000000            0.00      -12.91        0.00
   0.00000000   0.00000000  -0.00011744            0.00        0.00      -17.28

     BFGS Geometry Optimization
     Energy error            =      0.0E+00 Ry
     Gradient error          =      6.0E-26 Ry/Bohr
     Cell gradient error     =      1.3E+01 kbar

     number of scf cycles    =   1
     number of bfgs steps    =   0

     enthalpy           new  =     -22.7718701626 Ry

     new trust radius        =       0.0101241472 bohr
     new conv_thr            =       0.0000000010 Ry

     new unit-cell volume =    529.85688 a.u.^3 (    78.51669 Ang^3 )
     density =      0.50803 g/cm^3

CELL_PARAMETERS (alat=  4.65610675)
   0.997805704   0.000000000   0.000000000
  -0.498902852   0.864125088   0.000000000
   0.000000000   0.000000000   6.087895618

ATOMIC_POSITIONS (crystal)
C             0.3333333330        0.6666666660        0.5000000000
C             0.6666666660        0.3333333330        0.5000000000

     Writing config-only to output data dir ../tmp/gr.save/
     NEW-OLD atomic charge density approx. for the potential
     extrapolated charge    7.96478, renormalised to    8.00000

[...]

     iteration #  1     ecut=    80.00 Ry     beta= 0.70
     Davidson diagonalization with overlap
     c_bands:  1 eigenvalues not converged
     c_bands:  1 eigenvalues not converged
     ethr =  1.00E-06,  avg # of iterations = 10.7

[...]

          k =-0.0000 0.0964 0.0000 (  6493 PWs)   bands (ev):

[...]

     Energy error            =      1.6E-04 Ry
     Gradient error          =      6.9E-26 Ry/Bohr
     Cell gradient error     =      6.6E+00 kbar

[...]

     enthalpy           old  =     -22.7718701626 Ry
     enthalpy           new  =     -22.7720253498 Ry

     CASE: enthalpy          _new < enthalpy          _old

[...]

     Writing config-only to output data dir ../tmp/gr.save/
     NEW-OLD atomic charge density approx. for the potential

     negative rho (up, down):  1.277E-08 0.000E+00
     extrapolated charge    7.96286, renormalised to    8.00000

[...]

     number of scf cycles    =   3
     number of bfgs steps    =   2

     enthalpy           old  =     -22.7720253498 Ry
     enthalpy           new  =     -22.7720798916 Ry

     CASE: enthalpy          _new < enthalpy          _old

     new trust radius        =       0.0001694614 bohr
     new conv_thr            =            1.0E-11 Ry

     new unit-cell volume =    527.44752 a.u.^3 (    78.15966 Ang^3 )
     density =      0.51035 g/cm^3

[...]

ATOMIC_POSITIONS (crystal)
C             0.3333333330        0.6666666660        0.5000000000
C             0.6666666660        0.3333333330        0.5000000000

     Writing config-only to output data dir ../tmp/gr.save/
     NEW-OLD atomic charge density approx. for the potential
     extrapolated charge    8.00059, renormalised to    8.00000

[...]

     Threshold (ethr) on eigenvalues was too large:
     Diagonalizing with lowered threshold

     Davidson diagonalization with overlap
     ethr =  9.08E-10,  avg # of iterations =  1.6

[...]

     Energy error            =      1.4E-08 Ry
     Gradient error          =      0.0E+00 Ry/Bohr
     Cell gradient error     =      7.6E-04 kbar

     bfgs converged in   4 scf cycles and   3 bfgs steps
     (criteria: energy <  1.0E-05 Ry, force <  1.0E-04Ry/Bohr, cell <  5.0E-02kbar)

     End of BFGS Geometry Optimization

     Final enthalpy           =     -22.7720799056 Ry

     File ../tmp/gr.bfgs deleted, as requested
Begin final coordinates
     new unit-cell volume =    527.44752 a.u.^3 (    78.15966 Ang^3 )
     density =      0.51035 g/cm^3

CELL_PARAMETERS (alat=  4.65610675)
   0.995534509   0.000000000   0.000000000
  -0.497767254   0.862158175   0.000000000
   0.000000000   0.000000000   6.087895618

ATOMIC_POSITIONS (crystal)
C             0.3333333330        0.6666666660        0.5000000000
C             0.6666666660        0.3333333330        0.5000000000
End final coordinates

     Writing config-only to output data dir ../tmp/gr.save/

     Final scf calculation at the relaxed structure.
     The G-vectors are recalculated for the final unit cell
     Results may differ from those at the preceding step.

     Using Slab Decomposition

     bravais-lattice index     =            4
     lattice parameter (alat)  =       4.6561  a.u.
     unit-cell volume          =     527.4475 (a.u.)^3
     number of atoms/cell      =            2
     number of atomic types    =            1
     number of electrons       =         8.00
     number of Kohn-Sham states=            8
     kinetic-energy cutoff     =      80.0000  Ry
     charge density cutoff     =     320.0000  Ry
     scf convergence threshold =      1.0E-11
     mixing beta               =       0.7000
     number of iterations used =            8  plain     mixing
     press convergence thresh. =      5.0E-02
     Exchange-correlation= SLA-PW-PBX-PBC
                           (   1   4   3   4   0   0   0)

     celldm(1)=   4.656107  celldm(2)=   0.000000  celldm(3)=   6.087896
     celldm(4)=   0.000000  celldm(5)=   0.000000  celldm(6)=   0.000000

     crystal axes: (cart. coord. in units of alat)
               a(1) = (   0.995535   0.000000   0.000000 )
               a(2) = (  -0.497767   0.862158   0.000000 )
               a(3) = (   0.000000   0.000000   6.087896 )

     reciprocal axes: (cart. coord. in units 2 pi/alat)
               b(1) = (  1.004486  0.579940  0.000000 )
               b(2) = ( -0.000000  1.159880  0.000000 )
               b(3) = (  0.000000  0.000000  0.164260 )

     PseudoPot. # 1 for C  read from file:
     ../pseudo/C.pbe-hgh.UPF
     MD5 check sum: ca26ff84b356733038fc2f5c468d1892
     Pseudo is Norm-conserving, Zval =  4.0
     Generated in analytical, separable form
     Using radial grid of 1073 points,  1 beta functions with:
                l(1) =   0

     atomic species   valence    mass     pseudopotential
        C              4.00    12.01070     C ( 1.00)

     24 Sym. Ops., with inversion, found

   Cartesian axes

     site n.     atom                  positions (alat units)
         1           C   tau(   1) = (  -0.0000000   0.5747721   3.0439478  )
         2           C   tau(   2) = (   0.4977673   0.2873861   3.0439478  )

     number of k points=    19  Marzari-Vanderbilt smearing, width (Ry)=  0.0200
                       cart. coord. in units 2pi/alat
        k(    1) = (   0.0000000   0.0000000   0.0000000), wk =   0.0138889
        k(    2) = (  -0.0000000   0.0966567   0.0000000), wk =   0.0833333
        k(    3) = (  -0.0000000   0.1933133   0.0000000), wk =   0.0833333
        k(    4) = (  -0.0000000   0.2899700   0.0000000), wk =   0.0833333
        k(    5) = (  -0.0000000   0.3866267   0.0000000), wk =   0.0833333
        k(    6) = (  -0.0000000   0.4832833   0.0000000), wk =   0.0833333
        k(    7) = (   0.0000000  -0.5799400   0.0000000), wk =   0.0416667
        k(    8) = (   0.0837071   0.1449850   0.0000000), wk =   0.0833333
        k(    9) = (   0.0837071   0.2416417   0.0000000), wk =   0.1666667
        k(   10) = (   0.0837071   0.3382983   0.0000000), wk =   0.1666667
        k(   11) = (   0.0837071   0.4349550   0.0000000), wk =   0.1666667
        k(   12) = (   0.0837071   0.5316117   0.0000000), wk =   0.1666667
        k(   13) = (   0.1674143   0.2899700   0.0000000), wk =   0.0833333
        k(   14) = (   0.1674143   0.3866267   0.0000000), wk =   0.1666667
        k(   15) = (   0.1674143   0.4832833   0.0000000), wk =   0.1666667
        k(   16) = (   0.1674143   0.5799400   0.0000000), wk =   0.0833333
        k(   17) = (   0.2511214   0.4349550   0.0000000), wk =   0.0833333
        k(   18) = (   0.2511214   0.5316117   0.0000000), wk =   0.1666667
        k(   19) = (   0.3348285   0.5799400   0.0000000), wk =   0.0277778

     Initial potential from superposition of free atoms

     starting charge       7.9999, renormalised to       8.0000

     negative rho (up, down):  2.824E-05 0.000E+00
     Starting wfcs are    8 randomized atomic wfcs

     Self-consistent Calculation

[...]

     negative rho (up, down):  1.437E-06 0.000E+00

[...]

     iteration #  3     ecut=    80.00 Ry     beta= 0.70
     Davidson diagonalization with overlap
     c_bands:  1 eigenvalues not converged
     ethr =  2.88E-05,  avg # of iterations =  8.8

[...]

     total energy              =     -22.77139967 Ry
     estimated scf accuracy    <          9.3E-10 Ry

     iteration #  7     ecut=    80.00 Ry     beta= 0.70
     Davidson diagonalization with overlap
     ethr =  1.16E-11,  avg # of iterations =  2.6

     End of self-consistent calculation

[...]

          k =-0.0000 0.4833 0.0000 (  6338 PWs)   bands (ev):

[...]

          k = 0.3348 0.5799 0.0000 (  6360 PWs)   bands (ev):

   -14.3026 -14.3026 -12.3450  -1.6464  -1.6464   8.9816  11.3307  11.3307

     the Fermi energy is    -1.6085 ev

!    total energy              =     -22.77139967 Ry
     estimated scf accuracy    <          8.9E-12 Ry
     smearing contrib. (-TS)   =      -0.00018232 Ry
     internal energy E=F+TS    =     -22.77121735 Ry

     The total energy is F=E-TS. E is the sum of the following terms:
     one-electron contribution =    -158.96849617 Ry
     hartree contribution      =      80.86688320 Ry
     xc contribution           =      -7.03160232 Ry
     ewald contribution        =      62.36199795 Ry

     convergence has been achieved in   7 iterations

     Forces acting on atoms (cartesian axes, Ry/au):

     atom    1 type  1   force =     0.00000000    0.00000000    0.00000000
     atom    2 type  1   force =     0.00000000    0.00000000    0.00000000

     Total force =     0.000000     Total SCF correction =     0.000000

     Computing stress (Cartesian axis) and pressure

          total   stress  (Ry/bohr**3)                   (kbar)     P=       -6.20
  -0.00000381  -0.00000000  -0.00000000           -0.56       -0.00       -0.00
  -0.00000000  -0.00000381   0.00000000           -0.00       -0.56        0.00
   0.00000000   0.00000000  -0.00011877            0.00        0.00      -17.47

     Writing all to output data dir ../tmp/gr.save/

     General routines

     Parallel routines

   This run was terminated on:   0:36:57   1Feb2022

   JOB DONE.