     Program PWSCF v.7.0 starts on  1Feb2022 at  0:34:38

     R & G space division:  proc/nbgrp/npool/nimage =       4

     Waiting for input...
     Reading input from standard input

     Current dimensions of program PWSCF are:
     Max number of different atomic species (ntypx) = 10
     Max number of k-points (npk) =  40000
     Max angular momentum in pseudopotentials (lmaxx) =  4

     Subspace diagonalization in iterative solution of the eigenvalue problem:
     a serial algorithm will be used

     Using Slab Decomposition

     bravais-lattice index     =            4
     lattice parameter (alat)  =       4.6561  a.u.
     unit-cell volume          =     532.1899 (a.u.)^3
     number of atoms/cell      =            2
     number of atomic types    =            1
     number of electrons       =         8.00
     number of Kohn-Sham states=            8
     kinetic-energy cutoff     =      80.0000  Ry
     charge density cutoff     =     320.0000  Ry
     scf convergence threshold =      1.0E-09
     mixing beta               =       0.7000
     number of iterations used =            8  plain     mixing
     energy convergence thresh.=      1.0E-05
     force convergence thresh. =      1.0E-04
     press convergence thresh. =      5.0E-02
     Exchange-correlation= PBE
                           (   1   4   3   4   0   0   0)
     nstep                     =           50

     celldm(1)=   4.656107  celldm(2)=   0.000000  celldm(3)=   6.087896
     celldm(4)=   0.000000  celldm(5)=   0.000000  celldm(6)=   0.000000

     crystal axes: (cart. coord. in units of alat)
               a(1) = (   1.000000   0.000000   0.000000 )
               a(2) = (  -0.500000   0.866025   0.000000 )
               a(3) = (   0.000000   0.000000   6.087896 )

     reciprocal axes: (cart. coord. in units 2 pi/alat)
               b(1) = (  1.000000  0.577350  0.000000 )
               b(2) = (  0.000000  1.154701  0.000000 )
               b(3) = (  0.000000  0.000000  0.164260 )

     PseudoPot. # 1 for C  read from file:
     ../pseudo/C.pbe-n-rrkjus_psl.0.1.UPF
     MD5 check sum: 96a6a315177d77e6c95bf6fd3870f9e3
     Pseudo is Ultrasoft + core correction, Zval =  4.0
     Generated using &quot;atomic&quot; code by A. Dal Corso  v.6.3MaX
     Using radial grid of 1073 points,  4 beta functions with:
                l(1) =   0
                l(2) =   0
                l(3) =   1
                l(4) =   1
     Q(r) pseudized with 0 coefficients

     atomic species   valence    mass     pseudopotential
        C              4.00    12.01070     C ( 1.00)

     24 Sym. Ops., with inversion, found

   Cartesian axes

     site n.     atom                  positions (alat units)
         1           C   tau(   1) = (   0.0000000   0.5773503   3.0439478  )
         2           C   tau(   2) = (   0.5000000   0.2886751   3.0439478  )

     number of k points=    19  Marzari-Vanderbilt smearing, width (Ry)=  0.0200
                       cart. coord. in units 2pi/alat
        k(    1) = (   0.0000000   0.0000000   0.0000000), wk =   0.0138889
        k(    2) = (   0.0000000   0.0962250   0.0000000), wk =   0.0833333
        k(    3) = (   0.0000000   0.1924501   0.0000000), wk =   0.0833333
        k(    4) = (   0.0000000   0.2886751   0.0000000), wk =   0.0833333
        k(    5) = (   0.0000000   0.3849002   0.0000000), wk =   0.0833333
        k(    6) = (   0.0000000   0.4811252   0.0000000), wk =   0.0833333
        k(    7) = (   0.0000000  -0.5773503   0.0000000), wk =   0.0416667
        k(    8) = (   0.0833333   0.1443376   0.0000000), wk =   0.0833333
        k(    9) = (   0.0833333   0.2405626   0.0000000), wk =   0.1666667
        k(   10) = (   0.0833333   0.3367877   0.0000000), wk =   0.1666667
        k(   11) = (   0.0833333   0.4330127   0.0000000), wk =   0.1666667
        k(   12) = (   0.0833333   0.5292377   0.0000000), wk =   0.1666667
        k(   13) = (   0.1666667   0.2886751   0.0000000), wk =   0.0833333
        k(   14) = (   0.1666667   0.3849002   0.0000000), wk =   0.1666667
        k(   15) = (   0.1666667   0.4811252   0.0000000), wk =   0.1666667
        k(   16) = (   0.1666667   0.5773503   0.0000000), wk =   0.0833333
        k(   17) = (   0.2500000   0.4330127   0.0000000), wk =   0.0833333
        k(   18) = (   0.2500000   0.5292377   0.0000000), wk =   0.1666667
        k(   19) = (   0.3333333   0.5773503   0.0000000), wk =   0.0277778

     Check: negative core charge=   -0.000001

     Initial potential from superposition of free atoms

     starting charge       7.9999, renormalised to       8.0000

     negative rho (up, down):  5.686E-05 0.000E+00
     Starting wfcs are    8 randomized atomic wfcs

     Self-consistent Calculation

     iteration #  1     ecut=    80.00 Ry     beta= 0.70
     Davidson diagonalization with overlap
     ethr =  1.00E-02,  avg # of iterations =  7.2

     Threshold (ethr) on eigenvalues was too large:
     Diagonalizing with lowered threshold

     Davidson diagonalization with overlap
     ethr =  7.72E-04,  avg # of iterations =  7.8

     negative rho (up, down):  4.182E-08 0.000E+00

     total energy              =     -23.88154922 Ry
     estimated scf accuracy    <       0.19318988 Ry

[...]

     iteration #  3     ecut=    80.00 Ry     beta= 0.70
     Davidson diagonalization with overlap
     c_bands:  5 eigenvalues not converged
     c_bands:  3 eigenvalues not converged
     c_bands:  1 eigenvalues not converged
     c_bands:  1 eigenvalues not converged
     c_bands:  2 eigenvalues not converged
     ethr =  7.31E-05,  avg # of iterations = 17.9

[...]

     End of self-consistent calculation

          k = 0.0000 0.0000 0.0000 (  6489 PWs)   bands (ev):

   -21.2470  -9.3497  -4.7890  -4.7890   1.4872   2.3546   2.6944   4.6238

[...]

     the Fermi energy is    -1.6775 ev

!    total energy              =     -23.91025781 Ry
     estimated scf accuracy    <          6.2E-10 Ry
     smearing contrib. (-TS)   =      -0.00018232 Ry
     internal energy E=F+TS    =     -23.91007548 Ry

     The total energy is F=E-TS. E is the sum of the following terms:
     one-electron contribution =    -157.39817262 Ry
     hartree contribution      =      80.16169393 Ry
     xc contribution           =      -8.30324391 Ry
     ewald contribution        =      61.62964712 Ry

     convergence has been achieved in  29 iterations

[...]

     Forces acting on atoms (cartesian axes, Ry/au):

     atom    1 type  1   force =     0.00000000    0.00000000    0.00000000
     atom    2 type  1   force =    -0.00000000    0.00000000    0.00000000

     Total force =     0.000000     Total SCF correction =     0.000000

     Computing stress (Cartesian axis) and pressure

     negative rho (up, down):  2.304E-05 0.000E+00
          total   stress  (Ry/bohr**3)                   (kbar)     P=        0.30
   0.00000291   0.00000000   0.00000000            0.43        0.00        0.00
   0.00000000   0.00000291  -0.00000000            0.00        0.43       -0.00
   0.00000000   0.00000000   0.00000020            0.00        0.00        0.03

     BFGS Geometry Optimization
     Energy error            =      0.0E+00 Ry
     Gradient error          =      1.4E-25 Ry/Bohr
     Cell gradient error     =      4.3E-01 kbar

     number of scf cycles    =   1
     number of bfgs steps    =   0

     enthalpy           new  =     -23.9102578069 Ry

     new trust radius        =       0.0003356998 bohr
     new conv_thr            =       0.0000000010 Ry

     new unit-cell volume =    532.26733 a.u.^3 (    78.87388 Ang^3 )
     density =      0.50572 g/cm^3

CELL_PARAMETERS (alat=  4.65610675)
   1.000072759   0.000000000   0.000000000
  -0.500036380   0.866088415   0.000000000
   0.000000000   0.000000000   6.087895618

ATOMIC_POSITIONS (crystal)
C             0.3333333330        0.6666666660        0.5000000000
C             0.6666666660        0.3333333330        0.5000000000

     Writing config-only to output data dir ../tmp/gr.save/
     NEW-OLD atomic charge density approx. for the potential

[...]

     negative rho (up, down):  2.301E-05 0.000E+00
     extrapolated charge    8.00116, renormalised to    8.00000

[...]

          k =-0.0000 0.0962 0.0000 (  6493 PWs)   bands (ev):

[...]

     Energy error            =      1.7E-07 Ry
     Gradient error          =      6.9E-26 Ry/Bohr
     Cell gradient error     =      2.1E-01 kbar

     number of scf cycles    =   2
     number of bfgs steps    =   1

     enthalpy           old  =     -23.9102578069 Ry
     enthalpy           new  =     -23.9102579755 Ry

     CASE: enthalpy          _new < enthalpy          _old

     new trust radius        =       0.0003133109 bohr
     new conv_thr            =            1.0E-11 Ry

     new unit-cell volume =    532.33962 a.u.^3 (    78.88459 Ang^3 )
     density =      0.50566 g/cm^3

[...]

ATOMIC_POSITIONS (crystal)
C             0.3333333330        0.6666666660        0.5000000000
C             0.6666666660        0.3333333330        0.5000000000

     Writing config-only to output data dir ../tmp/gr.save/
     NEW-OLD atomic charge density approx. for the potential

[...]

     negative rho (up, down):  2.298E-05 0.000E+00
     extrapolated charge    8.00109, renormalised to    8.00000

[...]

     Threshold (ethr) on eigenvalues was too large:
     Diagonalizing with lowered threshold

     Davidson diagonalization with overlap
     ethr =  1.72E-09,  avg # of iterations =  4.4

[...]

     Energy error            =      6.0E-08 Ry
     Gradient error          =      0.0E+00 Ry/Bohr
     Cell gradient error     =      2.8E-02 kbar

     bfgs converged in   3 scf cycles and   2 bfgs steps
     (criteria: energy <  1.0E-05 Ry, force <  1.0E-04Ry/Bohr, cell <  5.0E-02kbar)

     End of BFGS Geometry Optimization

     Final enthalpy           =     -23.9102580357 Ry

     File ../tmp/gr.bfgs deleted, as requested
Begin final coordinates
     new unit-cell volume =    532.33962 a.u.^3 (    78.88459 Ang^3 )
     density =      0.50566 g/cm^3

CELL_PARAMETERS (alat=  4.65610675)
   1.000140666   0.000000000   0.000000000
  -0.500070333   0.866147224   0.000000000
   0.000000000   0.000000000   6.087895618

ATOMIC_POSITIONS (crystal)
C             0.3333333330        0.6666666660        0.5000000000
C             0.6666666660        0.3333333330        0.5000000000
End final coordinates

     Writing config-only to output data dir ../tmp/gr.save/

     Final scf calculation at the relaxed structure.
     The G-vectors are recalculated for the final unit cell
     Results may differ from those at the preceding step.

     Using Slab Decomposition

     bravais-lattice index     =            4
     lattice parameter (alat)  =       4.6561  a.u.
     unit-cell volume          =     532.3396 (a.u.)^3
     number of atoms/cell      =            2
     number of atomic types    =            1
     number of electrons       =         8.00
     number of Kohn-Sham states=            8
     kinetic-energy cutoff     =      80.0000  Ry
     charge density cutoff     =     320.0000  Ry
     scf convergence threshold =      1.0E-11
     mixing beta               =       0.7000
     number of iterations used =            8  plain     mixing
     press convergence thresh. =      5.0E-02
     Exchange-correlation= PBE
                           (   1   4   3   4   0   0   0)

     celldm(1)=   4.656107  celldm(2)=   0.000000  celldm(3)=   6.087896
     celldm(4)=   0.000000  celldm(5)=   0.000000  celldm(6)=   0.000000

     crystal axes: (cart. coord. in units of alat)
               a(1) = (   1.000141   0.000000   0.000000 )
               a(2) = (  -0.500070   0.866147   0.000000 )
               a(3) = (   0.000000   0.000000   6.087896 )

     reciprocal axes: (cart. coord. in units 2 pi/alat)
               b(1) = (  0.999859  0.577269  0.000000 )
               b(2) = ( -0.000000  1.154538  0.000000 )
               b(3) = (  0.000000  0.000000  0.164260 )

     PseudoPot. # 1 for C  read from file:
     ../pseudo/C.pbe-n-rrkjus_psl.0.1.UPF
     MD5 check sum: 96a6a315177d77e6c95bf6fd3870f9e3
     Pseudo is Ultrasoft + core correction, Zval =  4.0
     Generated using &quot;atomic&quot; code by A. Dal Corso  v.6.3MaX
     Using radial grid of 1073 points,  4 beta functions with:
                l(1) =   0
                l(2) =   0
                l(3) =   1
                l(4) =   1
     Q(r) pseudized with 0 coefficients

     atomic species   valence    mass     pseudopotential
        C              4.00    12.01070     C ( 1.00)

     24 Sym. Ops., with inversion, found

   Cartesian axes

     site n.     atom                  positions (alat units)
         1           C   tau(   1) = (  -0.0000000   0.5774315   3.0439478  )
         2           C   tau(   2) = (   0.5000703   0.2887157   3.0439478  )

     number of k points=    19  Marzari-Vanderbilt smearing, width (Ry)=  0.0200
                       cart. coord. in units 2pi/alat
        k(    1) = (   0.0000000   0.0000000   0.0000000), wk =   0.0138889
        k(    2) = (  -0.0000000   0.0962115   0.0000000), wk =   0.0833333
        k(    3) = (  -0.0000000   0.1924230   0.0000000), wk =   0.0833333
        k(    4) = (  -0.0000000   0.2886345   0.0000000), wk =   0.0833333
        k(    5) = (  -0.0000000   0.3848460   0.0000000), wk =   0.0833333
        k(    6) = (  -0.0000000   0.4810576   0.0000000), wk =   0.0833333
        k(    7) = (   0.0000000  -0.5772691   0.0000000), wk =   0.0416667
        k(    8) = (   0.0833216   0.1443173   0.0000000), wk =   0.0833333
        k(    9) = (   0.0833216   0.2405288   0.0000000), wk =   0.1666667
        k(   10) = (   0.0833216   0.3367403   0.0000000), wk =   0.1666667
        k(   11) = (   0.0833216   0.4329518   0.0000000), wk =   0.1666667
        k(   12) = (   0.0833216   0.5291633   0.0000000), wk =   0.1666667
        k(   13) = (   0.1666432   0.2886345   0.0000000), wk =   0.0833333
        k(   14) = (   0.1666432   0.3848460   0.0000000), wk =   0.1666667
        k(   15) = (   0.1666432   0.4810576   0.0000000), wk =   0.1666667
        k(   16) = (   0.1666432   0.5772691   0.0000000), wk =   0.0833333
        k(   17) = (   0.2499648   0.4329518   0.0000000), wk =   0.0833333
        k(   18) = (   0.2499648   0.5291633   0.0000000), wk =   0.1666667
        k(   19) = (   0.3332865   0.5772691   0.0000000), wk =   0.0277778

     Check: negative core charge=   -0.000001

     Initial potential from superposition of free atoms

     starting charge       7.9999, renormalised to       8.0000

     negative rho (up, down):  5.689E-05 0.000E+00
     Starting wfcs are    8 randomized atomic wfcs

     Self-consistent Calculation

[...]

     iteration # 15     ecut=    80.00 Ry     beta= 0.70
     Davidson diagonalization with overlap
     c_bands:  1 eigenvalues not converged
     ethr =  1.86E-07,  avg # of iterations =  7.9

[...]

     total energy              =     -23.91025808 Ry
     estimated scf accuracy    <          7.1E-09 Ry

     iteration # 33     ecut=    80.00 Ry     beta= 0.70
     Davidson diagonalization with overlap
     ethr =  4.29E-12,  avg # of iterations =  4.3

[...]

     End of self-consistent calculation

[...]

          k =-0.0000 0.4811 0.0000 (  6418 PWs)   bands (ev):

[...]

          k = 0.3333 0.5773 0.0000 (  6408 PWs)   bands (ev):

   -14.3249 -14.3249 -12.3082  -1.7169  -1.7169   8.9010  11.1632  11.1632

     the Fermi energy is    -1.6790 ev

!    total energy              =     -23.91025808 Ry
     estimated scf accuracy    <          5.4E-13 Ry
     smearing contrib. (-TS)   =      -0.00018232 Ry
     internal energy E=F+TS    =     -23.91007576 Ry

     The total energy is F=E-TS. E is the sum of the following terms:
     one-electron contribution =    -157.35267968 Ry
     hartree contribution      =      80.13844715 Ry
     xc contribution           =      -8.30259292 Ry
     ewald contribution        =      61.60674968 Ry

     convergence has been achieved in  33 iterations

     negative rho (up, down):  2.297E-05 0.000E+00

     Forces acting on atoms (cartesian axes, Ry/au):

     atom    1 type  1   force =     0.00000000    0.00000000    0.00000000
     atom    2 type  1   force =    -0.00000000   -0.00000000    0.00000000

     Total force =     0.000000     Total SCF correction =     0.000000

     Computing stress (Cartesian axis) and pressure

     negative rho (up, down):  2.297E-05 0.000E+00
          total   stress  (Ry/bohr**3)                   (kbar)     P=        0.01
   0.00000021   0.00000000   0.00000000            0.03        0.00        0.00
   0.00000000   0.00000021   0.00000000            0.00        0.03        0.00
   0.00000000   0.00000000  -0.00000019            0.00        0.00       -0.03

     Writing all to output data dir ../tmp/gr.save/

     General routines

     Parallel routines

   This run was terminated on:   0:35:15   1Feb2022

   JOB DONE.