     Program PWSCF v.7.0 starts on  1Feb2022 at  0:36: 6

     R & G space division:  proc/nbgrp/npool/nimage =       4

     Waiting for input...
     Reading input from standard input

     Current dimensions of program PWSCF are:
     Max number of different atomic species (ntypx) = 10
     Max number of k-points (npk) =  40000
     Max angular momentum in pseudopotentials (lmaxx) =  4
     file C.pz-n-kjpaw_psl.0.1.UPF: wavefunction(s)  2P renormalized

     Subspace diagonalization in iterative solution of the eigenvalue problem:
     a serial algorithm will be used

     Using Slab Decomposition

     bravais-lattice index     =            4
     lattice parameter (alat)  =       4.6561  a.u.
     unit-cell volume          =     532.1899 (a.u.)^3
     number of atoms/cell      =            2
     number of atomic types    =            1
     number of electrons       =         8.00
     number of Kohn-Sham states=            8
     kinetic-energy cutoff     =      80.0000  Ry
     charge density cutoff     =     320.0000  Ry
     scf convergence threshold =      1.0E-09
     mixing beta               =       0.7000
     number of iterations used =            8  plain     mixing
     energy convergence thresh.=      1.0E-05
     force convergence thresh. =      1.0E-04
     press convergence thresh. =      5.0E-02
     Exchange-correlation= SLA  PZ   NOGX NOGC
                           (   1   1   0   0   0   0   0)
     nstep                     =           50

     celldm(1)=   4.656107  celldm(2)=   0.000000  celldm(3)=   6.087896
     celldm(4)=   0.000000  celldm(5)=   0.000000  celldm(6)=   0.000000

     crystal axes: (cart. coord. in units of alat)
               a(1) = (   1.000000   0.000000   0.000000 )
               a(2) = (  -0.500000   0.866025   0.000000 )
               a(3) = (   0.000000   0.000000   6.087896 )

     reciprocal axes: (cart. coord. in units 2 pi/alat)
               b(1) = (  1.000000  0.577350  0.000000 )
               b(2) = (  0.000000  1.154701  0.000000 )
               b(3) = (  0.000000  0.000000  0.164260 )

     PseudoPot. # 1 for C  read from file:
     ../pseudo/C.pz-n-kjpaw_psl.0.1.UPF
     MD5 check sum: 31064b8f811a0131cb8d8580a9a89e3c
     Pseudo is Projector augmented-wave + core cor, Zval =  4.0
     Generated using "atomic" code by A. Dal Corso  v.5.0.2 svn rev. 9415
     Shape of augmentation charge: BESSEL
     Using radial grid of 1073 points,  4 beta functions with:
                l(1) =   0
                l(2) =   0
                l(3) =   1
                l(4) =   1
     Q(r) pseudized with 0 coefficients

     atomic species   valence    mass     pseudopotential
        C              4.00    12.01070     C ( 1.00)

     24 Sym. Ops., with inversion, found

   Cartesian axes

     site n.     atom                  positions (alat units)
         1           C   tau(   1) = (   0.0000000   0.5773503   3.0439478  )
         2           C   tau(   2) = (   0.5000000   0.2886751   3.0439478  )

     number of k points=    19  Marzari-Vanderbilt smearing, width (Ry)=  0.0200
                       cart. coord. in units 2pi/alat
        k(    1) = (   0.0000000   0.0000000   0.0000000), wk =   0.0138889
        k(    2) = (   0.0000000   0.0962250   0.0000000), wk =   0.0833333
        k(    3) = (   0.0000000   0.1924501   0.0000000), wk =   0.0833333
        k(    4) = (   0.0000000   0.2886751   0.0000000), wk =   0.0833333
        k(    5) = (   0.0000000   0.3849002   0.0000000), wk =   0.0833333
        k(    6) = (   0.0000000   0.4811252   0.0000000), wk =   0.0833333
        k(    7) = (   0.0000000  -0.5773503   0.0000000), wk =   0.0416667
        k(    8) = (   0.0833333   0.1443376   0.0000000), wk =   0.0833333
        k(    9) = (   0.0833333   0.2405626   0.0000000), wk =   0.1666667
        k(   10) = (   0.0833333   0.3367877   0.0000000), wk =   0.1666667
        k(   11) = (   0.0833333   0.4330127   0.0000000), wk =   0.1666667
        k(   12) = (   0.0833333   0.5292377   0.0000000), wk =   0.1666667
        k(   13) = (   0.1666667   0.2886751   0.0000000), wk =   0.0833333
        k(   14) = (   0.1666667   0.3849002   0.0000000), wk =   0.1666667
        k(   15) = (   0.1666667   0.4811252   0.0000000), wk =   0.1666667
        k(   16) = (   0.1666667   0.5773503   0.0000000), wk =   0.0833333
        k(   17) = (   0.2500000   0.4330127   0.0000000), wk =   0.0833333
        k(   18) = (   0.2500000   0.5292377   0.0000000), wk =   0.1666667
        k(   19) = (   0.3333333   0.5773503   0.0000000), wk =   0.0277778

     Check: negative core charge=   -0.000001

     Initial potential from superposition of free atoms

     starting charge       7.9999, renormalised to       8.0000

     negative rho (up, down):  8.081E-05 0.000E+00
     Starting wfcs are    8 randomized atomic wfcs
     Checking if some PAW data can be deallocated...

     Self-consistent Calculation

     iteration #  1     ecut=    80.00 Ry     beta= 0.70
     Davidson diagonalization with overlap
     ethr =  1.00E-02,  avg # of iterations =  8.7

     total energy              =     -35.59972931 Ry
     estimated scf accuracy    <       0.13596999 Ry

[...]

     negative rho (up, down):  3.012E-06 0.000E+00

[...]

     iteration #  3     ecut=    80.00 Ry     beta= 0.70
     Davidson diagonalization with overlap
     c_bands:  3 eigenvalues not converged
     c_bands:  1 eigenvalues not converged
     c_bands:  1 eigenvalues not converged
     ethr =  1.03E-04,  avg # of iterations = 15.1

[...]

     End of self-consistent calculation

          k = 0.0000 0.0000 0.0000 (  6489 PWs)   bands (ev):

   -21.3326  -9.6681  -5.0439  -5.0439   1.3494   2.3516   2.6285   4.5480

[...]

     the Fermi energy is    -1.9740 ev

!    total energy              =     -35.63593464 Ry

     total all-electron energy =      -151.245105 Ry
     estimated scf accuracy    <          9.7E-11 Ry
     smearing contrib. (-TS)   =      -0.00018232 Ry
     internal energy E=F+TS    =     -35.63575231 Ry

     The total energy is F=E-TS. E is the sum of the following terms:
     one-electron contribution =    -157.01535744 Ry
     hartree contribution      =      80.08979054 Ry
     xc contribution           =      -8.24968982 Ry
     ewald contribution        =      61.62964712 Ry
     one-center paw contrib.   =     -12.09014272 Ry

     convergence has been achieved in  12 iterations

[...]

     Forces acting on atoms (cartesian axes, Ry/au):

     atom    1 type  1   force =     0.00000000    0.00000000    0.00000000
     atom    2 type  1   force =     0.00000000    0.00000000    0.00000000

     Total force =     0.000000     Total SCF correction =     0.000000

     Computing stress (Cartesian axis) and pressure

     negative rho (up, down):  4.367E-05 0.000E+00
          total   stress  (Ry/bohr**3)                   (kbar)     P=      -13.58
  -0.00013832  -0.00000000   0.00000000          -20.35       -0.00        0.00
  -0.00000000  -0.00013832   0.00000000           -0.00      -20.35        0.00
   0.00000000   0.00000000  -0.00000041            0.00        0.00       -0.06

     BFGS Geometry Optimization
     Energy error            =      0.0E+00 Ry
     Gradient error          =      0.0E+00 Ry/Bohr
     Cell gradient error     =      2.0E+01 kbar

     number of scf cycles    =   1
     number of bfgs steps    =   0

     enthalpy           new  =     -35.6359346363 Ry

     new trust radius        =       0.0159542994 bohr
     new conv_thr            =       0.0000000010 Ry

     new unit-cell volume =    528.51571 a.u.^3 (    78.31795 Ang^3 )
     density =      0.50931 g/cm^3

CELL_PARAMETERS (alat=  4.65610675)
   0.996542084  -0.000000000   0.000000000
  -0.498271042   0.863030761   0.000000000
   0.000000000   0.000000000   6.087895618

ATOMIC_POSITIONS (crystal)
C             0.3333333330        0.6666666660        0.5000000000
C             0.6666666660        0.3333333330        0.5000000000

     Writing config-only to output data dir ../tmp/gr.save/
     NEW-OLD atomic charge density approx. for the potential

[...]

     negative rho (up, down):  4.818E-05 0.000E+00
     extrapolated charge    7.94439, renormalised to    8.00000

[...]

          k =-0.0000-0.5794 0.0000 (  6386 PWs)   bands (ev):

[...]

     Energy error            =      3.9E-04 Ry
     Gradient error          =      1.4E-25 Ry/Bohr
     Cell gradient error     =      1.1E+01 kbar

[...]

     enthalpy           old  =     -35.6359346363 Ry
     enthalpy           new  =     -35.6363242113 Ry

     CASE: enthalpy          _new < enthalpy          _old

[...]

     number of scf cycles    =   3
     number of bfgs steps    =   2

     enthalpy           old  =     -35.6363242113 Ry
     enthalpy           new  =     -35.6364689542 Ry

     CASE: enthalpy          _new < enthalpy          _old

     new trust radius        =       0.0001581271 bohr
     new conv_thr            =            1.0E-11 Ry

     new unit-cell volume =    524.52504 a.u.^3 (    77.72659 Ang^3 )
     density =      0.51319 g/cm^3

[...]

ATOMIC_POSITIONS (crystal)
C             0.3333333330        0.6666666660        0.5000000000
C             0.6666666660        0.3333333330        0.5000000000

     Writing config-only to output data dir ../tmp/gr.save/
     NEW-OLD atomic charge density approx. for the potential

     negative rho (up, down):  3.999E-05 0.000E+00
     extrapolated charge    8.00055, renormalised to    8.00000

[...]

     Threshold (ethr) on eigenvalues was too large:
     Diagonalizing with lowered threshold

     Davidson diagonalization with overlap
     ethr =  6.52E-10,  avg # of iterations =  3.7

[...]

     Energy error            =      1.2E-08 Ry
     Gradient error          =      6.9E-26 Ry/Bohr
     Cell gradient error     =      9.0E-04 kbar

     bfgs converged in   4 scf cycles and   3 bfgs steps
     (criteria: energy <  1.0E-05 Ry, force <  1.0E-04Ry/Bohr, cell <  5.0E-02kbar)

     End of BFGS Geometry Optimization

     Final enthalpy           =     -35.6364689662 Ry

     File ../tmp/gr.bfgs deleted, as requested
Begin final coordinates
     new unit-cell volume =    524.52504 a.u.^3 (    77.72659 Ang^3 )
     density =      0.51319 g/cm^3

CELL_PARAMETERS (alat=  4.65610675)
   0.992772649  -0.000000000   0.000000000
  -0.496386324   0.859766334   0.000000000
   0.000000000   0.000000000   6.087895618

ATOMIC_POSITIONS (crystal)
C             0.3333333330        0.6666666660        0.5000000000
C             0.6666666660        0.3333333330        0.5000000000
End final coordinates

     Writing config-only to output data dir ../tmp/gr.save/

     Final scf calculation at the relaxed structure.
     The G-vectors are recalculated for the final unit cell
     Results may differ from those at the preceding step.

     Using Slab Decomposition

     bravais-lattice index     =            4
     lattice parameter (alat)  =       4.6561  a.u.
     unit-cell volume          =     524.5250 (a.u.)^3
     number of atoms/cell      =            2
     number of atomic types    =            1
     number of electrons       =         8.00
     number of Kohn-Sham states=            8
     kinetic-energy cutoff     =      80.0000  Ry
     charge density cutoff     =     320.0000  Ry
     scf convergence threshold =      1.0E-11
     mixing beta               =       0.7000
     number of iterations used =            8  plain     mixing
     press convergence thresh. =      5.0E-02
     Exchange-correlation= SLA  PZ   NOGX NOGC
                           (   1   1   0   0   0   0   0)

     celldm(1)=   4.656107  celldm(2)=   0.000000  celldm(3)=   6.087896
     celldm(4)=   0.000000  celldm(5)=   0.000000  celldm(6)=   0.000000

     crystal axes: (cart. coord. in units of alat)
               a(1) = (   0.992773  -0.000000   0.000000 )
               a(2) = (  -0.496386   0.859766   0.000000 )
               a(3) = (   0.000000   0.000000   6.087896 )

     reciprocal axes: (cart. coord. in units 2 pi/alat)
               b(1) = (  1.007280  0.581553  0.000000 )
               b(2) = (  0.000000  1.163107  0.000000 )
               b(3) = (  0.000000  0.000000  0.164260 )

     PseudoPot. # 1 for C  read from file:
     ../pseudo/C.pz-n-kjpaw_psl.0.1.UPF
     MD5 check sum: 31064b8f811a0131cb8d8580a9a89e3c
     Pseudo is Projector augmented-wave + core cor, Zval =  4.0
     Generated using "atomic" code by A. Dal Corso  v.5.0.2 svn rev. 9415
     Shape of augmentation charge: BESSEL
     Using radial grid of 1073 points,  4 beta functions with:
                l(1) =   0
                l(2) =   0
                l(3) =   1
                l(4) =   1
     Q(r) pseudized with 0 coefficients

     atomic species   valence    mass     pseudopotential
        C              4.00    12.01070     C ( 1.00)

     24 Sym. Ops., with inversion, found

   Cartesian axes

     site n.     atom                  positions (alat units)
         1           C   tau(   1) = (  -0.0000000   0.5731776   3.0439478  )
         2           C   tau(   2) = (   0.4963863   0.2865888   3.0439478  )

     number of k points=    19  Marzari-Vanderbilt smearing, width (Ry)=  0.0200
                       cart. coord. in units 2pi/alat
        k(    1) = (   0.0000000   0.0000000   0.0000000), wk =   0.0138889
        k(    2) = (   0.0000000   0.0969256   0.0000000), wk =   0.0833333
        k(    3) = (   0.0000000   0.1938511   0.0000000), wk =   0.0833333
        k(    4) = (   0.0000000   0.2907767   0.0000000), wk =   0.0833333
        k(    5) = (   0.0000000   0.3877022   0.0000000), wk =   0.0833333
        k(    6) = (   0.0000000   0.4846278   0.0000000), wk =   0.0833333
        k(    7) = (  -0.0000000  -0.5815534   0.0000000), wk =   0.0416667
        k(    8) = (   0.0839400   0.1453883   0.0000000), wk =   0.0833333
        k(    9) = (   0.0839400   0.2423139   0.0000000), wk =   0.1666667
        k(   10) = (   0.0839400   0.3392395   0.0000000), wk =   0.1666667
        k(   11) = (   0.0839400   0.4361650   0.0000000), wk =   0.1666667
        k(   12) = (   0.0839400   0.5330906   0.0000000), wk =   0.1666667
        k(   13) = (   0.1678800   0.2907767   0.0000000), wk =   0.0833333
        k(   14) = (   0.1678800   0.3877022   0.0000000), wk =   0.1666667
        k(   15) = (   0.1678800   0.4846278   0.0000000), wk =   0.1666667
        k(   16) = (   0.1678800   0.5815534   0.0000000), wk =   0.0833333
        k(   17) = (   0.2518200   0.4361650   0.0000000), wk =   0.0833333
        k(   18) = (   0.2518200   0.5330906   0.0000000), wk =   0.1666667
        k(   19) = (   0.3357600   0.5815534   0.0000000), wk =   0.0277778

     Check: negative core charge=   -0.000001

     Initial potential from superposition of free atoms

     starting charge       7.9999, renormalised to       8.0000

     negative rho (up, down):  7.990E-05 0.000E+00
     Starting wfcs are    8 randomized atomic wfcs
     Checking if some PAW data can be deallocated...

     Self-consistent Calculation

[...]

     iteration #  3     ecut=    80.00 Ry     beta= 0.70
     Davidson diagonalization with overlap
     c_bands:  1 eigenvalues not converged
     c_bands:  1 eigenvalues not converged
     c_bands:  1 eigenvalues not converged
     c_bands:  1 eigenvalues not converged
     c_bands:  2 eigenvalues not converged
     ethr =  3.58E-05,  avg # of iterations = 15.3

[...]

     total energy              =     -35.63646755 Ry
     estimated scf accuracy    <          3.4E-11 Ry

     iteration # 22     ecut=    80.00 Ry     beta= 0.70
     Davidson diagonalization with overlap
     ethr =  2.99E-13,  avg # of iterations =  1.9

[...]

     End of self-consistent calculation

[...]

          k =-0.0000-0.5816 0.0000 (  6330 PWs)   bands (ev):

[...]

          k = 0.3358 0.5816 0.0000 (  6324 PWs)   bands (ev):

   -14.3868 -14.3868 -12.6943  -1.9272  -1.9272   8.4838  11.0990  11.0990

     the Fermi energy is    -1.8893 ev

!    total energy              =     -35.63646755 Ry

     total all-electron energy =      -151.245638 Ry
     estimated scf accuracy    <          5.2E-12 Ry
     smearing contrib. (-TS)   =      -0.00018232 Ry
     internal energy E=F+TS    =     -35.63628523 Ry

     The total energy is F=E-TS. E is the sum of the following terms:
     one-electron contribution =    -159.37205088 Ry
     hartree contribution      =      81.29051785 Ry
     xc contribution           =      -8.28287253 Ry
     ewald contribution        =      62.82030523 Ry
     one-center paw contrib.   =     -12.09218490 Ry

     convergence has been achieved in  22 iterations

     negative rho (up, down):  4.562E-05 0.000E+00

     Forces acting on atoms (cartesian axes, Ry/au):

     atom    1 type  1   force =     0.00000000    0.00000000    0.00000000
     atom    2 type  1   force =     0.00000000    0.00000000    0.00000000

     Total force =     0.000000     Total SCF correction =     0.000000

     Computing stress (Cartesian axis) and pressure

     negative rho (up, down):  4.562E-05 0.000E+00
          total   stress  (Ry/bohr**3)                   (kbar)     P=       -0.02
  -0.00000001  -0.00000000   0.00000000           -0.00       -0.00        0.00
  -0.00000000  -0.00000001  -0.00000000           -0.00       -0.00       -0.00
   0.00000000   0.00000000  -0.00000039            0.00        0.00       -0.06

     Writing all to output data dir ../tmp/gr.save/

     General routines

     Parallel routines

   This run was terminated on:   0:36:41   1Feb2022

   JOB DONE.