     Program PWSCF v.6.7MaX starts on  1Jan2023 at 16:25:21

     R & G space division:  proc/nbgrp/npool/nimage =       8
     Waiting for input...
     Reading input from standard input

     Current dimensions of program PWSCF are:
     Max number of different atomic species (ntypx) = 10
     Max number of k-points (npk) =  40000
     Max angular momentum in pseudopotentials (lmaxx) =  3
     file Mo.pbe-spn-rrkjus_psl.1.0.0.UPF: wavefunction(s)  4S renormalized

     IMPORTANT: XC functional enforced from input :
     Exchange-correlation= HSE
                           (   1   4  12   4   0   0   0)
     EXX-fraction              =        0.25
     Any further DFT definition will be discarded
     Please, verify this is what you really want

     EXX fraction changed:   0.25
     Message from routine setup :
     BEWARE: nonlinear core correction is not consistent with hybrid XC

     EXX: q-point mesh:     2    2    1
     EXX: setup a grid of 24 q-points centered on each k-point
     (k+q)-points:
   0.0000000   0.0000000   0.0000000         1    1
   0.0000000  -0.5773503   0.0000000         4    1
   0.5000000   0.2886751   0.0000000         4    4
  -0.5000000   0.2886751   0.0000000         4    3
   0.0000000   0.1924501   0.0000000         2    1
  -0.0000000  -0.3849002   0.0000000         3   -1
  -0.5000000  -0.0962250   0.0000000         6    4
   0.5000000  -0.0962250   0.0000000         6    6
   0.0000000   0.3849002   0.0000000         3    1
  -0.0000000  -0.1924501   0.0000000         2   -1
  -0.5000000   0.0962250   0.0000000         6   -6
   0.5000000   0.0962250  -0.0000000         6   -4
   0.1666667   0.2886751   0.0000000         5    1
   0.1666667  -0.2886751  -0.0000000         5   -2
  -0.3333333  -0.0000000   0.0000000         5    4
  -0.3333333  -0.5773503   0.0000000         7   -1
   0.1666667   0.4811252   0.0000000         6    1
   0.1666667  -0.0962250   0.0000000         2    3
  -0.3333333   0.1924501   0.0000000         3   -3
  -0.3333333  -0.3849002   0.0000000         6    5
   0.3333333   0.5773503   0.0000000         7    1
   0.3333333   0.0000000  -0.0000000         5   -4
  -0.1666667   0.2886751   0.0000000         5    2
  -0.1666667  -0.2886751   0.0000000         5   -1

     bravais-lattice index     =            4
     lattice parameter (alat)  =       6.0141  a.u.
     unit-cell volume          =    1183.8569 (a.u.)^3
     number of atoms/cell      =            3
     number of atomic types    =            2
     number of electrons       =        26.00
     number of Kohn-Sham states=           30
     kinetic-energy cutoff     =      60.0000  Ry
     charge density cutoff     =     240.0000  Ry
     cutoff for Fock operator  =     240.0000  Ry
     scf convergence threshold =      1.0E-06
     mixing beta               =       0.7000
     number of iterations used =            8  plain     mixing
     Exchange-correlation= HSE
                           (   1   4  12   4   0   0   0)
     EXX-fraction              =        0.25

     celldm(1)=   6.014089  celldm(2)=   0.000000  celldm(3)=   6.284330
     celldm(4)=   0.000000  celldm(5)=   0.000000  celldm(6)=   0.000000

     crystal axes: (cart. coord. in units of alat)
               a(1) = (   1.000000   0.000000   0.000000 )
               a(2) = (  -0.500000   0.866025   0.000000 )
               a(3) = (   0.000000   0.000000   6.284330 )

     reciprocal axes: (cart. coord. in units 2 pi/alat)
               b(1) = (  1.000000  0.577350 -0.000000 )
               b(2) = (  0.000000  1.154701  0.000000 )
               b(3) = (  0.000000 -0.000000  0.159126 )

     PseudoPot. # 1 for Mo read from file:
     ../pseudo/Mo.pbe-spn-rrkjus_psl.1.0.0.UPF
     MD5 check sum: 03f09b12e49601d1a456a78ce8b2d514
     Pseudo is Ultrasoft + core correction, Zval = 14.0
     Generated using &quot;atomic&quot; code by A. Dal Corso  v.6.3
     Using radial grid of 1229 points,  6 beta functions with:
                l(1) =   0
                l(2) =   0
                l(3) =   1
                l(4) =   1
                l(5) =   2
                l(6) =   2
     Q(r) pseudized with 0 coefficients

     PseudoPot. # 2 for S  read from file:
     ../pseudo/S.pbe-nl-rrkjus_psl.1.0.0.UPF
     MD5 check sum: 816524f9d2370a67bf2b5249ef8e004b
     Pseudo is Ultrasoft + core correction, Zval =  6.0
     Generated using &quot;atomic&quot; code by A. Dal Corso  v.6.3
     Using radial grid of 1151 points,  4 beta functions with:
                l(1) =   0
                l(2) =   0
                l(3) =   1
                l(4) =   1
     Q(r) pseudized with 0 coefficients

     atomic species   valence    mass     pseudopotential
        Mo            14.00    95.94000     Mo( 1.00)
        S              6.00    32.06500     S ( 1.00)

     12 Sym. Ops. (no inversion) found

   Cartesian axes

     site n.     atom                  positions (alat units)
         1           Mo  tau(   1) = (   0.0000000   0.0000000   3.1421652  )
         2           S   tau(   2) = (  -0.0000000   0.5773503   2.6504465  )
         3           S   tau(   3) = (  -0.0000000   0.5773503   3.6338831  )

     number of k points=     7
                       cart. coord. in units 2pi/alat
        k(    1) = (   0.0000000   0.0000000   0.0000000), wk =   0.0555556
        k(    2) = (   0.0000000   0.1924501   0.0000000), wk =   0.3333333
        k(    3) = (   0.0000000   0.3849002   0.0000000), wk =   0.3333333
        k(    4) = (   0.0000000  -0.5773503   0.0000000), wk =   0.1666667
        k(    5) = (   0.1666667   0.2886751   0.0000000), wk =   0.3333333
        k(    6) = (   0.1666667   0.4811252   0.0000000), wk =   0.6666667
        k(    7) = (   0.3333333   0.5773503   0.0000000), wk =   0.1111111

     Initial potential from superposition of free atoms

     starting charge   25.99905, renormalised to   26.00000

     negative rho (up, down):  2.169E-03 0.000E+00
     Starting wfcs are   18 randomized atomic wfcs +   12 random wfcs

     Self-consistent Calculation

     iteration #  1     ecut=    60.00 Ry     beta= 0.70
     Davidson diagonalization with overlap
     ethr =  1.00E-02,  avg # of iterations =  9.1

     Threshold (ethr) on eigenvalues was too large:
     Diagonalizing with lowered threshold

     Davidson diagonalization with overlap
     ethr =  4.80E-04,  avg # of iterations =  1.9

     negative rho (up, down):  2.541E-03 0.000E+00

     total energy              =    -181.52872583 Ry
     estimated scf accuracy    <       0.12588129 Ry

[...]

     End of self-consistent calculation

          k = 0.0000 0.0000 0.0000 (  9363 PWs)   bands (ev):

   -61.8454 -35.9880 -35.7785 -35.7785 -15.0332 -13.7422  -6.5657  -3.5512
    -3.5512  -2.7407  -2.4483  -2.4483  -0.9780   1.8016   1.8016   2.0395
     2.0395   4.0243   4.3238   4.7617   5.4132   5.9337   7.0924   8.0471
     8.8059   9.8065   9.8065  10.0508  11.8103  11.8104

[...]

     highest occupied, lowest unoccupied level (ev):    -0.9723    0.7153

!    total energy              =    -181.57964508 Ry
     estimated scf accuracy    <       0.00000003 Ry

     convergence has been achieved in   7 iterations

     Using ACE for calculation of exact exchange

[...]

     EXX: now go back to refine exchange calculation

[...]

     total energy              =    -180.39455189 Ry
     Harris-Foulkes estimate   =    -180.39455238 Ry
     est. exchange err (dexx)  =       0.00049899 Ry
     - averaged Fock potential =       9.47701167 Ry
     + Fock energy (ACE)       =      -4.73351891 Ry

[...]

     total energy              =    -180.39460973 Ry
     estimated scf accuracy    <       0.00000625 Ry

[...]

     total energy              =    -180.39462157 Ry
     Harris-Foulkes estimate   =    -180.39462167 Ry
     est. exchange err (dexx)  =       0.00001074 Ry
     - averaged Fock potential =       9.46664195 Ry
     + Fock energy (ACE)       =      -4.73313378 Ry

     EXX: now go back to refine exchange calculation

     Self-consistent Calculation

     iteration #  1     ecut=    60.00 Ry     beta= 0.70
     Davidson diagonalization with overlap
     ethr =  2.40E-08,  avg # of iterations =  2.1

     negative rho (up, down):  2.634E-03 0.000E+00

     End of self-consistent calculation

[...]

          k = 0.3333 0.5774 0.0000 (  9234 PWs)   bands (ev):

   -65.8541 -38.9144 -38.8809 -38.6734 -14.6301 -14.5557  -7.3897  -6.5795
    -5.9909  -5.5523  -4.6798  -3.9548  -1.5233   1.0546   2.6154   2.9572
     4.5606   6.7527   7.1719   9.0759   9.9383  10.4393  10.6805  10.7675
    10.8129  10.9422  11.3399  11.3539  11.4277  11.6784

     highest occupied, lowest unoccupied level (ev):    -1.5233    1.0546

!    total energy              =    -180.39462389 Ry
     estimated scf accuracy    <       0.00000071 Ry

     convergence has been achieved in   1 iterations

     Using ACE for calculation of exact exchange

!!   total energy              =    -180.39462477 Ry
     Harris-Foulkes estimate   =    -180.39462534 Ry
     est. exchange err (dexx)  =       0.00000088 Ry
     - averaged Fock potential =       9.46622688 Ry
     + Fock energy (ACE)       =      -4.73309398 Ry

     EXX self-consistency reached

     Writing output data file ../tmp/mos2.save/

     General routines

     Parallel routines

     EXX routines

     EXX+US  routines

   This run was terminated on:  16:49: 7   1Jan2023

   JOB DONE.