     Program PHONON v.7.0 starts on  6Feb2022 at  7:38:51

     R & G space division:  proc/nbgrp/npool/nimage =       4

     Waiting for input...
     Reading input from standard input

     Reading xml data from directory:

     ../tmp/gr.save/

     IMPORTANT: XC functional enforced from input :
     Exchange-correlation= PBE
                           (   1   4   3   4   0   0   0)
     Any further DFT definition will be discarded
     Please, verify this is what you really want

     Using Slab Decomposition

 ----2D----2D----2D----2D----2D----2D----2D----2D----2D----2D----2D----2D
  The code is running with the 2D cutoff
  Please refer to:
  Sohier, T., Calandra, M., & Mauri, F. (2017),
  Density functional perturbation theory for gated two-dimensional heterostructu
 res:
  Theoretical developments and application to flexural phonons in graphene.
 ----2D----2D----2D----2D----2D----2D----2D----2D----2D----2D----2D----2D

     Check: negative core charge=   -0.000001

     negative rho (up, down):  2.304E-05 0.000E+00
     Reading collected, re-writing distributed wavefunctions

     Dynamical matrices for ( 6, 6, 1)  uniform grid of q-points
     (   7 q-points):
       N         xq(1)         xq(2)         xq(3)
       1   0.000000000   0.000000000   0.000000000
       2   0.000000000   0.192450090   0.000000000
       3   0.000000000   0.384900179   0.000000000
       4   0.000000000  -0.577350269   0.000000000
       5   0.166666667   0.288675135   0.000000000
       6   0.166666667   0.481125224   0.000000000
       7   0.333333333   0.577350269   0.000000000

     Saving dvscf to file. Distribute only q points, not irreducible represetations.

     Calculation of q =    0.0000000   0.0000000   0.0000000

     phonon calc.

     bravais-lattice index     =            4
     lattice parameter (alat)  =       4.6561  a.u.
     unit-cell volume          =     532.1899 (a.u.)^3
     number of atoms/cell      =            2
     number of atomic types    =            1
     kinetic-energy cut-off    =      80.0000  Ry
     charge density cut-off    =     320.0000  Ry
     convergence threshold     =      1.0E-14
     beta                      =       0.7000
     number of iterations used =            4
     Exchange-correlation= PBE
                           (   1   4   3   4   0   0   0)

     celldm(1)=    4.65611  celldm(2)=    0.00000  celldm(3)=    6.08790
     celldm(4)=    0.00000  celldm(5)=    0.00000  celldm(6)=    0.00000

     crystal axes: (cart. coord. in units of alat)
               a(1) = (  1.0000  0.0000  0.0000 )
               a(2) = ( -0.5000  0.8660  0.0000 )
               a(3) = (  0.0000  0.0000  6.0879 )

     reciprocal axes: (cart. coord. in units 2 pi/alat)
               b(1) = (  1.0000  0.5774  0.0000 )
               b(2) = (  0.0000  1.1547  0.0000 )
               b(3) = (  0.0000  0.0000  0.1643 )

     Atoms inside the unit cell:

     Cartesian axes

     site n.  atom      mass           positions (alat units)
        1     C   12.0107   tau(    1) = (    0.00000    0.57735    3.04395  )
        2     C   12.0107   tau(    2) = (    0.50000    0.28868    3.04395  )

     Computing dynamical matrix for
                    q = (   0.0000000   0.0000000   0.0000000 )

     25 Sym.Ops. (with q -> -q+G )

     G cutoff =  175.7260  (  12829 G-vectors)     FFT grid: ( 27, 27,162)

     number of k points=    19  Marzari-Vanderbilt smearing, width (Ry)=  0.0200

     PseudoPot. # 1 for C  read from file:
     ../pseudo/C.pbe-n-rrkjus_psl.0.1.UPF
     MD5 check sum: 96a6a315177d77e6c95bf6fd3870f9e3
     Pseudo is Ultrasoft + core correction, Zval =  4.0
     Generated using &quot;atomic&quot; code by A. Dal Corso  v.6.3MaX
     Using radial grid of 1073 points,  4 beta functions with:
                l(1) =   0
                l(2) =   0
                l(3) =   1
                l(4) =   1
     Q(r) pseudized with 0 coefficients

     Mode symmetry, D_6h(6/mmm) point group:

     Atomic displacements:
     There are    4 irreducible representations

     Representation     1      1 modes -  To be done

[...]

     Alpha used in Ewald sum =   2.8000

     negative rho (up, down):  2.304E-05 0.000E+00

     Representation #   1 mode #   1

     Self-consistent Calculation

     Pert. #  1: Fermi energy shift (Ry) =     1.4117E-22     0.0000E+00

      thresh= 1.000E-02 alpha_mix =  0.700 |ddv_scf|^2 =  2.706E-07

[...]

     End of self-consistent calculation

     Convergence has been achieved

     Representation #   2 modes #   2   3

[...]

     Pert. #  1: Fermi energy shift (Ry) =     2.1176E-22    -7.5232E-37
     Pert. #  2: Fermi energy shift (Ry) =    -3.5293E-23     1.4106E-36

[...]

     Number of q in the star =    1
     List of q in the star:
          1   0.000000000   0.000000000   0.000000000

     Diagonalizing the dynamical matrix

     q = (    0.000000000   0.000000000   0.000000000 )

     freq (    1) =       1.138365 [THz] =      37.971757 [cm-1]
     freq (    2) =       1.138365 [THz] =      37.971757 [cm-1]
     freq (    3) =       1.370646 [THz] =      45.719825 [cm-1]
     freq (    4) =      26.296775 [THz] =     877.166004 [cm-1]
     freq (    5) =      44.551556 [THz] =    1486.079947 [cm-1]
     freq (    6) =      44.551556 [THz] =    1486.079947 [cm-1]

     Mode symmetry, D_6h(6/mmm) point group:

     freq (   1-   2) =         38.0  [cm-1]   --> E_1u            I
     freq (   3-   3) =         45.7  [cm-1]   --> A_2u            I
     freq (   4-   4) =        877.2  [cm-1]   --> B_1g
     freq (   5-   6) =       1486.1  [cm-1]   --> E_2g            R
     electron-phonon interaction  ...

     Gaussian Broadening:   0.020 Ry, ngauss=   0
     DOS =  0.122860 states/spin/Ry/Unit Cell at Ef= -4.238911 eV
     lambda(    1)=  0.3002   gamma=    0.05 GHz
     lambda(    2)=  0.1533   gamma=    0.02 GHz
     lambda(    3)=  0.0001   gamma=    0.00 GHz
     lambda(    4)=  0.0000   gamma=    0.00 GHz
     lambda(    5)=  1.3810   gamma=  321.60 GHz
     lambda(    6)=  1.3816   gamma=  321.72 GHz
     Gaussian Broadening:   0.040 Ry, ngauss=   0
     DOS =  0.242754 states/spin/Ry/Unit Cell at Ef= -4.244465 eV
     lambda(    1)=  2.5752   gamma=    0.77 GHz
     lambda(    2)=  1.3623   gamma=    0.41 GHz
     lambda(    3)=  0.0000   gamma=    0.00 GHz
     lambda(    4)=  0.0000   gamma=    0.00 GHz
     lambda(    5)=  0.4641   gamma=  213.56 GHz
     lambda(    6)=  0.4674   gamma=  215.06 GHz
     Gaussian Broadening:   0.060 Ry, ngauss=   0
     DOS =  0.390420 states/spin/Ry/Unit Cell at Ef= -4.259073 eV
     lambda(    1)=  2.6709   gamma=    1.29 GHz
     lambda(    2)=  1.6139   gamma=    0.78 GHz
     lambda(    3)=  0.0000   gamma=    0.00 GHz
     lambda(    4)=  0.0000   gamma=    0.00 GHz
     lambda(    5)=  0.2955   gamma=  218.71 GHz
     lambda(    6)=  0.2981   gamma=  220.58 GHz
     Gaussian Broadening:   0.080 Ry, ngauss=   0
     DOS =  0.575004 states/spin/Ry/Unit Cell at Ef= -4.286670 eV
     lambda(    1)=  2.6377   gamma=    1.88 GHz
     lambda(    2)=  1.8887   gamma=    1.34 GHz
     lambda(    3)=  0.0000   gamma=    0.00 GHz
     lambda(    4)=  0.0000   gamma=    0.00 GHz
     lambda(    5)=  0.2101   gamma=  228.93 GHz
     lambda(    6)=  0.2118   gamma=  230.87 GHz
     Gaussian Broadening:   0.100 Ry, ngauss=   0
     DOS =  0.776356 states/spin/Ry/Unit Cell at Ef= -4.312762 eV
     lambda(    1)=  2.9365   gamma=    2.82 GHz
     lambda(    2)=  2.4174   gamma=    2.32 GHz
     lambda(    3)=  0.0000   gamma=    0.00 GHz
     lambda(    4)=  0.0000   gamma=    0.00 GHz
     lambda(    5)=  0.1673   gamma=  246.13 GHz
     lambda(    6)=  0.1686   gamma=  248.04 GHz
     Gaussian Broadening:   0.120 Ry, ngauss=   0
     DOS =  0.971043 states/spin/Ry/Unit Cell at Ef= -4.328522 eV
     lambda(    1)=  3.4006   gamma=    4.09 GHz
     lambda(    2)=  3.0296   gamma=    3.64 GHz
     lambda(    3)=  0.0000   gamma=    0.00 GHz
     lambda(    4)=  0.0000   gamma=    0.00 GHz
     lambda(    5)=  0.1445   gamma=  266.00 GHz
     lambda(    6)=  0.1455   gamma=  267.80 GHz
     Gaussian Broadening:   0.140 Ry, ngauss=   0
     DOS =  1.149505 states/spin/Ry/Unit Cell at Ef= -4.334146 eV
     lambda(    1)=  3.7692   gamma=    5.36 GHz
     lambda(    2)=  3.4955   gamma=    4.97 GHz
     lambda(    3)=  0.0002   gamma=    0.00 GHz
     lambda(    4)=  0.0000   gamma=    0.00 GHz
     lambda(    5)=  0.1302   gamma=  283.74 GHz
     lambda(    6)=  0.1310   gamma=  285.44 GHz
     Gaussian Broadening:   0.160 Ry, ngauss=   0
     DOS =  1.312227 states/spin/Ry/Unit Cell at Ef= -4.332440 eV
     lambda(    1)=  3.9478   gamma=    6.41 GHz
     lambda(    2)=  3.7411   gamma=    6.07 GHz
     lambda(    3)=  0.0016   gamma=    0.00 GHz
     lambda(    4)=  0.0000   gamma=    0.00 GHz
     lambda(    5)=  0.1196   gamma=  297.58 GHz
     lambda(    6)=  0.1203   gamma=  299.18 GHz
     Gaussian Broadening:   0.180 Ry, ngauss=   0
     DOS =  1.463004 states/spin/Ry/Unit Cell at Ef= -4.326204 eV
     lambda(    1)=  3.9533   gamma=    7.16 GHz
     lambda(    2)=  3.7942   gamma=    6.87 GHz
     lambda(    3)=  0.0099   gamma=    0.03 GHz
     lambda(    4)=  0.0000   gamma=    0.00 GHz
     lambda(    5)=  0.1109   gamma=  307.60 GHz
     lambda(    6)=  0.1115   gamma=  309.12 GHz
     Gaussian Broadening:   0.200 Ry, ngauss=   0
     DOS =  1.605645 states/spin/Ry/Unit Cell at Ef= -4.317604 eV
     lambda(    1)=  3.8366   gamma=    7.62 GHz
     lambda(    2)=  3.7124   gamma=    7.38 GHz
     lambda(    3)=  0.0413   gamma=    0.12 GHz
     lambda(    4)=  0.0000   gamma=    0.03 GHz
     lambda(    5)=  0.1033   gamma=  314.36 GHz
     lambda(    6)=  0.1038   gamma=  315.79 GHz

[...]

     Subspace diagonalization in iterative solution of the eigenvalue problem:
     a serial algorithm will be used

[...]

     Title:
     phonon calc.

     bravais-lattice index     =            4
     lattice parameter (alat)  =       4.6561  a.u.
     unit-cell volume          =     532.1899 (a.u.)^3
     number of atoms/cell      =            2
     number of atomic types    =            1
     number of electrons       =         8.00
     number of Kohn-Sham states=            8
     kinetic-energy cutoff     =      80.0000  Ry
     charge density cutoff     =     320.0000  Ry
     Exchange-correlation= PBE
                           (   1   4   3   4   0   0   0)

[...]

     atomic species   valence    mass     pseudopotential
        C              4.00    12.01070     C ( 1.00)

     24 Sym. Ops., with inversion, found

[...]

     site n.     atom                  positions (alat units)
         1           C   tau(   1) = (   0.0000000   0.5773503   3.0439478  )
         2           C   tau(   2) = (   0.5000000   0.2886751   3.0439478  )

[...]

     Number of k-points >= 100: set verbosity='high' to print them.

[...]

     The potential is recalculated from file :
     ../tmp/_ph0/gr.q_2/gr.save/charge-density

     negative rho (up, down):  2.304E-05 0.000E+00
     Starting wfcs are    8 atomic wfcs

     Band Structure Calculation
     Davidson diagonalization with overlap

[...]
        k(   84) = (   0.3333333  -1.0584755   0.0000000), wk =   0.0000000
        k(   85) = (  -0.5833333  -0.0481125   0.0000000), wk =   0.0555556
        k(   86) = (  -0.5833333  -0.6254628   0.0000000), wk =   0.0000000

[...]

          k = 0.0000 0.0000 0.0000 (  6489 PWs)   bands (ev):

   -23.7689 -11.8721  -7.3105  -7.3105  -0.9836  -0.1247   1.5167   2.4481

[...]

          k =-0.5000 0.2887 0.0000 (  6386 PWs)   bands (ev):

[...]

      9 Sym.Ops. (with q -> -q+G )

[...]

     Mode symmetry, D_2h (mmm)  point group:

[...]

     Mode symmetry, D_2h (mmm)  point group:

     freq (   1-   1) =        472.7  [cm-1]   --> B_2g
     freq (   2-   2) =        624.5  [cm-1]   --> B_1g
     freq (   3-   3) =        634.6  [cm-1]   --> B_1u
     freq (   4-   4) =       1330.5  [cm-1]   --> B_3u
     freq (   5-   5) =       1341.7  [cm-1]   --> A_g
     freq (   6-   6) =       1390.1  [cm-1]   --> B_2u
     electron-phonon interaction  ...

[...]

     Mode symmetry, C_2v (mm2)  point group:

     freq (   1-   1) =        205.4  [cm-1]   --> B_2  D_4  S_4
     freq (   2-   2) =        598.1  [cm-1]   --> B_1  D_3  S_3
     freq (   3-   3) =        801.5  [cm-1]   --> A_2  D_2  S_2
     freq (   4-   4) =        838.5  [cm-1]   --> A_1  D_1  S_1
     freq (   5-   5) =       1431.0  [cm-1]   --> A_1  D_1  S_1
     freq (   6-   6) =       1556.8  [cm-1]   --> B_1  D_3  S_3
     electron-phonon interaction  ...

[...]

     Number of k-points >= 100: set verbosity='high' to print them.

[...]

     Number of k-points >= 100: set verbosity='high' to print the bands.

[...]

     Mode symmetry, C_s (m)     point group:

[...]

     Mode symmetry, C_s (m)     point group:

     freq (   1-   1) =        405.5  [cm-1]   --> A''
     freq (   2-   2) =        670.6  [cm-1]   --> A''
     freq (   3-   3) =        773.9  [cm-1]   --> A'
     freq (   4-   4) =       1147.8  [cm-1]   --> A'
     freq (   5-   5) =       1373.6  [cm-1]   --> A'
     freq (   6-   6) =       1405.7  [cm-1]   --> A'
     electron-phonon interaction  ...

[...]

     Calculation of q =    0.3333333   0.5773503   0.0000000

     Using Slab Decomposition

     Title:
     phonon calc.

     bravais-lattice index     =            4
     lattice parameter (alat)  =       4.6561  a.u.
     unit-cell volume          =     532.1899 (a.u.)^3
     number of atoms/cell      =            2
     number of atomic types    =            1
     number of electrons       =         8.00
     number of Kohn-Sham states=            8
     kinetic-energy cutoff     =      80.0000  Ry
     charge density cutoff     =     320.0000  Ry
     Exchange-correlation= PBE
                           (   1   4   3   4   0   0   0)

[...]

     atomic species   valence    mass     pseudopotential
        C              4.00    12.01070     C ( 1.00)

     24 Sym. Ops., with inversion, found

[...]

     site n.     atom                  positions (alat units)
         1           C   tau(   1) = (   0.0000000   0.5773503   3.0439478  )
         2           C   tau(   2) = (   0.5000000   0.2886751   3.0439478  )

     number of k points=    62  Marzari-Vanderbilt smearing, width (Ry)=  0.0200
                       cart. coord. in units 2pi/alat
        k(    1) = (   0.0000000   0.0000000   0.0000000), wk =   0.0138889
        k(    2) = (   0.3333333   0.5773503   0.0000000), wk =   0.0000000
        k(    3) = (   0.0000000   0.0962250   0.0000000), wk =   0.0833333
        k(    4) = (   0.3333333   0.6735753   0.0000000), wk =   0.0000000
        k(    5) = (   0.0000000   0.1924501   0.0000000), wk =   0.0833333
        k(    6) = (   0.3333333   0.7698004   0.0000000), wk =   0.0000000
        k(    7) = (   0.0000000   0.2886751   0.0000000), wk =   0.0833333
        k(    8) = (   0.3333333   0.8660254   0.0000000), wk =   0.0000000
        k(    9) = (   0.0000000   0.3849002   0.0000000), wk =   0.0833333
        k(   10) = (   0.3333333   0.9622504   0.0000000), wk =   0.0000000
        k(   11) = (   0.0000000   0.4811252   0.0000000), wk =   0.0833333
        k(   12) = (   0.3333333   1.0584755   0.0000000), wk =   0.0000000
        k(   13) = (   0.0000000  -0.5773503   0.0000000), wk =   0.0416667
        k(   14) = (   0.3333333   0.0000000   0.0000000), wk =   0.0000000
        k(   15) = (   0.0833333   0.1443376   0.0000000), wk =   0.0416667
        k(   16) = (   0.4166667   0.7216878   0.0000000), wk =   0.0000000
        k(   17) = (   0.0833333   0.2405626   0.0000000), wk =   0.0833333
        k(   18) = (   0.4166667   0.8179129   0.0000000), wk =   0.0000000
        k(   19) = (   0.0833333   0.3367877   0.0000000), wk =   0.0833333
        k(   20) = (   0.4166667   0.9141379   0.0000000), wk =   0.0000000
        k(   21) = (   0.0833333   0.4330127   0.0000000), wk =   0.0833333
        k(   22) = (   0.4166667   1.0103630   0.0000000), wk =   0.0000000
        k(   23) = (   0.0833333   0.5292377   0.0000000), wk =   0.0833333
        k(   24) = (   0.4166667   1.1065880   0.0000000), wk =   0.0000000
        k(   25) = (   0.1666667   0.2886751   0.0000000), wk =   0.0416667
        k(   26) = (   0.5000000   0.8660254   0.0000000), wk =   0.0000000
        k(   27) = (   0.1666667   0.3849002   0.0000000), wk =   0.0833333
        k(   28) = (   0.5000000   0.9622504   0.0000000), wk =   0.0000000
        k(   29) = (   0.1666667   0.4811252   0.0000000), wk =   0.0833333
        k(   30) = (   0.5000000   1.0584755   0.0000000), wk =   0.0000000
        k(   31) = (   0.1666667   0.5773503   0.0000000), wk =   0.0416667
        k(   32) = (   0.5000000   1.1547005   0.0000000), wk =   0.0000000
        k(   33) = (   0.2500000   0.4330127   0.0000000), wk =   0.0416667
        k(   34) = (   0.5833333   1.0103630   0.0000000), wk =   0.0000000
        k(   35) = (   0.2500000   0.5292377   0.0000000), wk =   0.0833333
        k(   36) = (   0.5833333   1.1065880   0.0000000), wk =   0.0000000
        k(   37) = (   0.3333333   0.5773503   0.0000000), wk =   0.0138889
        k(   38) = (   0.6666667   1.1547005   0.0000000), wk =   0.0000000
        k(   39) = (  -0.0833333   0.1443376   0.0000000), wk =   0.0416667
        k(   40) = (   0.2500000   0.7216878   0.0000000), wk =   0.0000000
        k(   41) = (  -0.1666667   0.1924501   0.0000000), wk =   0.0833333
        k(   42) = (   0.1666667   0.7698004   0.0000000), wk =   0.0000000
        k(   43) = (  -0.2500000   0.2405626   0.0000000), wk =   0.0833333
        k(   44) = (   0.0833333   0.8179129   0.0000000), wk =   0.0000000
        k(   45) = (  -0.3333333   0.2886751   0.0000000), wk =   0.0833333
        k(   46) = (   0.0000000   0.8660254   0.0000000), wk =   0.0000000
        k(   47) = (  -0.4166667   0.3367877   0.0000000), wk =   0.0833333
        k(   48) = (  -0.0833333   0.9141379   0.0000000), wk =   0.0000000
        k(   49) = (  -0.1666667   0.2886751   0.0000000), wk =   0.0416667
        k(   50) = (   0.1666667   0.8660254   0.0000000), wk =   0.0000000
        k(   51) = (  -0.2500000   0.3367877   0.0000000), wk =   0.0833333
        k(   52) = (   0.0833333   0.9141379   0.0000000), wk =   0.0000000
        k(   53) = (  -0.3333333   0.3849002   0.0000000), wk =   0.0833333
        k(   54) = (   0.0000000   0.9622504   0.0000000), wk =   0.0000000
        k(   55) = (  -0.4166667   0.4330127   0.0000000), wk =   0.0416667
        k(   56) = (  -0.0833333   1.0103630   0.0000000), wk =   0.0000000
        k(   57) = (  -0.2500000   0.4330127   0.0000000), wk =   0.0416667
        k(   58) = (   0.0833333   1.0103630   0.0000000), wk =   0.0000000
        k(   59) = (  -0.3333333   0.4811252   0.0000000), wk =   0.0833333
        k(   60) = (   0.0000000   1.0584755   0.0000000), wk =   0.0000000
        k(   61) = (  -0.3333333   0.5773503   0.0000000), wk =   0.0138889
        k(   62) = (  -0.0000000   1.1547005   0.0000000), wk =   0.0000000

     Check: negative core charge=   -0.000001

     The potential is recalculated from file :
     ../tmp/_ph0/gr.q_7/gr.save/charge-density

     negative rho (up, down):  2.304E-05 0.000E+00
     Starting wfcs are    8 atomic wfcs

     Band Structure Calculation
     Davidson diagonalization with overlap

     ethr =  1.25E-10,  avg # of iterations = 35.7

     End of band structure calculation

[...]

          k = 0.0000 1.0585 0.0000 (  6493 PWs)   bands (ev):

[...]

          k =-0.0000 1.1547 0.0000 (  6489 PWs)   bands (ev):

   -23.7689 -11.8721  -7.3105  -7.3105  -0.9836  -0.1247   1.5167   2.4481

     the Fermi energy is    -4.1997 ev

     Writing config to output data dir ../tmp/_ph0/gr.q_7/gr.save/

     phonon calc.

     bravais-lattice index     =            4
     lattice parameter (alat)  =       4.6561  a.u.
     unit-cell volume          =     532.1899 (a.u.)^3
     number of atoms/cell      =            2
     number of atomic types    =            1
     kinetic-energy cut-off    =      80.0000  Ry
     charge density cut-off    =     320.0000  Ry
     convergence threshold     =      1.0E-14
     beta                      =       0.7000
     number of iterations used =            4
     Exchange-correlation= PBE
                           (   1   4   3   4   0   0   0)

     celldm(1)=    4.65611  celldm(2)=    0.00000  celldm(3)=    6.08790
     celldm(4)=    0.00000  celldm(5)=    0.00000  celldm(6)=    0.00000

     crystal axes: (cart. coord. in units of alat)
               a(1) = (  1.0000  0.0000  0.0000 )
               a(2) = ( -0.5000  0.8660  0.0000 )
               a(3) = (  0.0000  0.0000  6.0879 )

     reciprocal axes: (cart. coord. in units 2 pi/alat)
               b(1) = (  1.0000  0.5774  0.0000 )
               b(2) = (  0.0000  1.1547  0.0000 )
               b(3) = (  0.0000  0.0000  0.1643 )

     Atoms inside the unit cell:

     Cartesian axes

     site n.  atom      mass           positions (alat units)
        1     C   12.0107   tau(    1) = (    0.00000    0.57735    3.04395  )
        2     C   12.0107   tau(    2) = (    0.50000    0.28868    3.04395  )

     Computing dynamical matrix for
                    q = (   0.3333333   0.5773503   0.0000000 )

     12 Sym.Ops. (no q -> -q+G )

     G cutoff =  175.7260  (  12829 G-vectors)     FFT grid: ( 27, 27,162)

     number of k points=    62  Marzari-Vanderbilt smearing, width (Ry)=  0.0200

     PseudoPot. # 1 for C  read from file:
     ../pseudo/C.pbe-n-rrkjus_psl.0.1.UPF
     MD5 check sum: 96a6a315177d77e6c95bf6fd3870f9e3
     Pseudo is Ultrasoft + core correction, Zval =  4.0
     Generated using &quot;atomic&quot; code by A. Dal Corso  v.6.3MaX
     Using radial grid of 1073 points,  4 beta functions with:
                l(1) =   0
                l(2) =   0
                l(3) =   1
                l(4) =   1
     Q(r) pseudized with 0 coefficients

     Mode symmetry, D_3h (-62m) point group:

     Atomic displacements:
     There are    4 irreducible representations

[...]

     Representation     4      2 modes -  To be done

     Alpha used in Ewald sum =   2.8000

     negative rho (up, down):  2.304E-05 0.000E+00

[...]

     Representation #   2 mode #   2

[...]

     Representation #   4 modes #   5   6

     Self-consistent Calculation

[...]

      thresh= 1.594E-08 alpha_mix =  0.700 |ddv_scf|^2 =  2.931E-16

     End of self-consistent calculation

     Convergence has been achieved

[...]

     Diagonalizing the dynamical matrix

     q = (    0.333333333   0.577350269   0.000000000 )

     freq (    1) =      16.024065 [THz] =     534.505284 [cm-1]
     freq (    2) =      16.024065 [THz] =     534.505284 [cm-1]
     freq (    3) =      29.832627 [THz] =     995.109314 [cm-1]
     freq (    4) =      36.358477 [THz] =    1212.788244 [cm-1]
     freq (    5) =      36.358477 [THz] =    1212.788244 [cm-1]
     freq (    6) =      36.407815 [THz] =    1214.433974 [cm-1]

     Mode symmetry, D_3h (-62m) point group:

     freq (   1-   2) =        534.5  [cm-1]   --> E''
     freq (   3-   3) =        995.1  [cm-1]   --> A'_2
     freq (   4-   5) =       1212.8  [cm-1]   --> E'
     freq (   6-   6) =       1214.4  [cm-1]   --> A'_1
     electron-phonon interaction  ...

     Gaussian Broadening:   0.020 Ry, ngauss=   0
     DOS =  0.122860 states/spin/Ry/Unit Cell at Ef= -4.238911 eV
     lambda(    1)=  0.0000   gamma=    0.00 GHz
     lambda(    2)=  0.0000   gamma=    0.00 GHz
     lambda(    3)=  0.0000   gamma=    0.00 GHz
     lambda(    4)=  0.0651   gamma=   10.10 GHz
     lambda(    5)=  0.0652   gamma=   10.12 GHz
     lambda(    6)=  2.0950   gamma=  325.81 GHz
     Gaussian Broadening:   0.040 Ry, ngauss=   0
     DOS =  0.242754 states/spin/Ry/Unit Cell at Ef= -4.244465 eV
     lambda(    1)=  0.0000   gamma=    0.00 GHz
     lambda(    2)=  0.0000   gamma=    0.00 GHz
     lambda(    3)=  0.0000   gamma=    0.00 GHz
     lambda(    4)=  0.0253   gamma=    7.75 GHz
     lambda(    5)=  0.0263   gamma=    8.05 GHz
     lambda(    6)=  0.6872   gamma=  211.15 GHz
     Gaussian Broadening:   0.060 Ry, ngauss=   0
     DOS =  0.390420 states/spin/Ry/Unit Cell at Ef= -4.259073 eV
     lambda(    1)=  0.0000   gamma=    0.00 GHz
     lambda(    2)=  0.0000   gamma=    0.00 GHz
     lambda(    3)=  0.0000   gamma=    0.00 GHz
     lambda(    4)=  0.0176   gamma=    8.67 GHz
     lambda(    5)=  0.0185   gamma=    9.11 GHz
     lambda(    6)=  0.4248   gamma=  209.96 GHz
     Gaussian Broadening:   0.080 Ry, ngauss=   0
     DOS =  0.575004 states/spin/Ry/Unit Cell at Ef= -4.286670 eV
     lambda(    1)=  0.0003   gamma=    0.04 GHz
     lambda(    2)=  0.0003   gamma=    0.04 GHz
     lambda(    3)=  0.0000   gamma=    0.00 GHz
     lambda(    4)=  0.0134   gamma=    9.71 GHz
     lambda(    5)=  0.0141   gamma=   10.20 GHz
     lambda(    6)=  0.2873   gamma=  209.13 GHz
     Gaussian Broadening:   0.100 Ry, ngauss=   0
     DOS =  0.776356 states/spin/Ry/Unit Cell at Ef= -4.312762 eV
     lambda(    1)=  0.0038   gamma=    0.71 GHz
     lambda(    2)=  0.0037   gamma=    0.71 GHz
     lambda(    3)=  0.0000   gamma=    0.00 GHz
     lambda(    4)=  0.0111   gamma=   10.86 GHz
     lambda(    5)=  0.0116   gamma=   11.34 GHz
     lambda(    6)=  0.2120   gamma=  208.34 GHz
     Gaussian Broadening:   0.120 Ry, ngauss=   0
     DOS =  0.971043 states/spin/Ry/Unit Cell at Ef= -4.328522 eV
     lambda(    1)=  0.0146   gamma=    3.47 GHz
     lambda(    2)=  0.0145   gamma=    3.46 GHz
     lambda(    3)=  0.0000   gamma=    0.00 GHz
     lambda(    4)=  0.0099   gamma=   12.09 GHz
     lambda(    5)=  0.0102   gamma=   12.54 GHz
     lambda(    6)=  0.1689   gamma=  207.62 GHz
     Gaussian Broadening:   0.140 Ry, ngauss=   0
     DOS =  1.149505 states/spin/Ry/Unit Cell at Ef= -4.334146 eV
     lambda(    1)=  0.0319   gamma=    8.99 GHz
     lambda(    2)=  0.0318   gamma=    8.96 GHz
     lambda(    3)=  0.0000   gamma=    0.00 GHz
     lambda(    4)=  0.0093   gamma=   13.47 GHz
     lambda(    5)=  0.0096   gamma=   13.89 GHz
     lambda(    6)=  0.1422   gamma=  206.86 GHz
     Gaussian Broadening:   0.160 Ry, ngauss=   0
     DOS =  1.312227 states/spin/Ry/Unit Cell at Ef= -4.332440 eV
     lambda(    1)=  0.0520   gamma=   16.72 GHz
     lambda(    2)=  0.0518   gamma=   16.66 GHz
     lambda(    3)=  0.0000   gamma=    0.00 GHz
     lambda(    4)=  0.0091   gamma=   15.08 GHz
     lambda(    5)=  0.0093   gamma=   15.47 GHz
     lambda(    6)=  0.1240   gamma=  205.94 GHz
     Gaussian Broadening:   0.180 Ry, ngauss=   0
     DOS =  1.463004 states/spin/Ry/Unit Cell at Ef= -4.326204 eV
     lambda(    1)=  0.0716   gamma=   25.68 GHz
     lambda(    2)=  0.0714   gamma=   25.61 GHz
     lambda(    3)=  0.0000   gamma=    0.00 GHz
     lambda(    4)=  0.0092   gamma=   17.01 GHz
     lambda(    5)=  0.0094   gamma=   17.37 GHz
     lambda(    6)=  0.1106   gamma=  204.84 GHz
     Gaussian Broadening:   0.200 Ry, ngauss=   0
     DOS =  1.605645 states/spin/Ry/Unit Cell at Ef= -4.317604 eV
     lambda(    1)=  0.0891   gamma=   35.09 GHz
     lambda(    2)=  0.0889   gamma=   35.01 GHz
     lambda(    3)=  0.0000   gamma=    0.00 GHz
     lambda(    4)=  0.0096   gamma=   19.37 GHz
     lambda(    5)=  0.0097   gamma=   19.70 GHz
     lambda(    6)=  0.1002   gamma=  203.57 GHz

     Number of q in the star =    2
     List of q in the star:
          1   0.333333333   0.577350269   0.000000000
          2  -0.333333333   0.577350269   0.000000000

     General routines

     Parallel routines

     INITIALIZATION:

     DYNAMICAL MATRIX:

      Electron-phonon coupling

      General routines

   This run was terminated on:   7:47:40   6Feb2022

   JOB DONE.