     Program PWSCF v.7.0 starts on  3Feb2022 at 10:45:53

     R & G space division:  proc/nbgrp/npool/nimage =       4

     Waiting for input...
     Reading input from standard input

     Current dimensions of program PWSCF are:
     Max number of different atomic species (ntypx) = 10
     Max number of k-points (npk) =  40000
     Max angular momentum in pseudopotentials (lmaxx) =  4
     Presently no symmetry can be used with electric field

     IMPORTANT: XC functional enforced from input :
     Exchange-correlation= VDW-DF2
                           (   1   4  13   0   2   0   0)
     Any further DFT definition will be discarded
     Please, verify this is what you really want

     Subspace diagonalization in iterative solution of the eigenvalue problem:
     a serial algorithm will be used

     Using Slab Decomposition

     bravais-lattice index     =            4
     lattice parameter (alat)  =       4.6975  a.u.
     unit-cell volume          =     722.2482 (a.u.)^3
     number of atoms/cell      =            4
     number of atomic types    =            1
     number of electrons       =        16.00
     number of Kohn-Sham states=           12
     kinetic-energy cutoff     =      80.0000  Ry
     charge density cutoff     =     320.0000  Ry
     scf convergence threshold =      1.0E-09
     mixing beta               =       0.7000
     number of iterations used =            8  plain     mixing
     Exchange-correlation= VDW-DF2
                           (   1   4  13   0   2   0   0)

     celldm(1)=   4.697464  celldm(2)=   0.000000  celldm(3)=   8.045729
     celldm(4)=   0.000000  celldm(5)=   0.000000  celldm(6)=   0.000000

     crystal axes: (cart. coord. in units of alat)
               a(1) = (   1.000000   0.000000   0.000000 )
               a(2) = (  -0.500000   0.866025   0.000000 )
               a(3) = (   0.000000   0.000000   8.045729 )

     reciprocal axes: (cart. coord. in units 2 pi/alat)
               b(1) = (  1.000000  0.577350  0.000000 )
               b(2) = (  0.000000  1.154701  0.000000 )
               b(3) = (  0.000000  0.000000  0.124290 )

     PseudoPot. # 1 for C  read from file:
     ../pseudo/C.pbe-n-rrkjus_psl.0.1.UPF
     MD5 check sum: 96a6a315177d77e6c95bf6fd3870f9e3
     Pseudo is Ultrasoft + core correction, Zval =  4.0
     Generated using &quot;atomic&quot; code by A. Dal Corso  v.6.3MaX
     Using radial grid of 1073 points,  4 beta functions with:
                l(1) =   0
                l(2) =   0
                l(3) =   1
                l(4) =   1
     Q(r) pseudized with 0 coefficients

     atomic species   valence    mass     pseudopotential
        C              4.00    12.01070     C ( 1.00)

     No symmetry found

   Cartesian axes

     site n.     atom                  positions (alat units)
         1           C   tau(   1) = (   0.0000000   0.0000000   3.3108847  )
         2           C   tau(   2) = (  -0.0000000   0.5773503   3.3106351  )
         3           C   tau(   3) = (   0.0000000   0.0000000   4.7348440  )
         4           C   tau(   4) = (   0.5000000   0.2886751   4.7350935  )

     number of k points=    34  Marzari-Vanderbilt smearing, width (Ry)=  0.0200
                       cart. coord. in units 2pi/alat
        k(    1) = (   0.0000000   0.0000000   0.0000000), wk =   0.0312500
        k(    2) = (   0.0000000   0.1443376   0.0000000), wk =   0.0625000
        k(    3) = (   0.0000000   0.2886751   0.0000000), wk =   0.0625000
        k(    4) = (   0.0000000   0.4330127   0.0000000), wk =   0.0625000
        k(    5) = (   0.0000000  -0.5773503   0.0000000), wk =   0.0312500
        k(    6) = (   0.1250000   0.0721688   0.0000000), wk =   0.0625000
        k(    7) = (   0.1250000   0.2165064   0.0000000), wk =   0.0625000
        k(    8) = (   0.1250000   0.3608439   0.0000000), wk =   0.0625000
        k(    9) = (   0.1250000   0.5051815   0.0000000), wk =   0.0625000
        k(   10) = (   0.1250000  -0.5051815   0.0000000), wk =   0.0625000
        k(   11) = (   0.1250000  -0.3608439   0.0000000), wk =   0.0625000
        k(   12) = (   0.1250000  -0.2165064   0.0000000), wk =   0.0625000
        k(   13) = (   0.1250000  -0.0721688   0.0000000), wk =   0.0625000
        k(   14) = (   0.2500000   0.1443376   0.0000000), wk =   0.0625000
        k(   15) = (   0.2500000   0.2886751   0.0000000), wk =   0.0625000
        k(   16) = (   0.2500000   0.4330127   0.0000000), wk =   0.0625000
        k(   17) = (   0.2500000   0.5773503   0.0000000), wk =   0.0625000
        k(   18) = (   0.2500000  -0.4330127   0.0000000), wk =   0.0625000
        k(   19) = (   0.2500000  -0.2886751   0.0000000), wk =   0.0625000
        k(   20) = (   0.2500000  -0.1443376   0.0000000), wk =   0.0625000
        k(   21) = (   0.2500000   0.0000000   0.0000000), wk =   0.0625000
        k(   22) = (   0.3750000   0.2165064   0.0000000), wk =   0.0625000
        k(   23) = (   0.3750000   0.3608439   0.0000000), wk =   0.0625000
        k(   24) = (   0.3750000   0.5051815   0.0000000), wk =   0.0625000
        k(   25) = (   0.3750000   0.6495191   0.0000000), wk =   0.0625000
        k(   26) = (   0.3750000  -0.3608439   0.0000000), wk =   0.0625000
        k(   27) = (   0.3750000  -0.2165064   0.0000000), wk =   0.0625000
        k(   28) = (   0.3750000  -0.0721688   0.0000000), wk =   0.0625000
        k(   29) = (   0.3750000   0.0721688   0.0000000), wk =   0.0625000
        k(   30) = (  -0.5000000  -0.2886751   0.0000000), wk =   0.0312500
        k(   31) = (  -0.5000000  -0.1443376   0.0000000), wk =   0.0625000
        k(   32) = (  -0.5000000   0.0000000   0.0000000), wk =   0.0625000
        k(   33) = (  -0.5000000   0.1443376   0.0000000), wk =   0.0625000
        k(   34) = (  -0.5000000  -0.8660254   0.0000000), wk =   0.0312500

     Check: negative core charge=   -0.000001

     Initial potential from superposition of free atoms

     starting charge      15.9998, renormalised to      16.0000

     negative rho (up, down):  8.193E-05 0.000E+00

     %%%%%%%%%%%%%%%%%%%%%%%%%%%%%%%%%%%%%%%%%%%%%%%%%%%%%%%%%%%%%%%%%%%%%%%%
     %                                                                      %
     % You are using vdW-DF, which was implemented by the Thonhauser group. %
     % Please cite the following two papers that made this development      %
     % possible and the two reviews that describe the various versions:     %
     %                                                                      %
     %   T. Thonhauser et al., PRL 115, 136402 (2015).                      %
     %   T. Thonhauser et al., PRB 76, 125112 (2007).                       %
     %   K. Berland et al., Rep. Prog. Phys. 78, 066501 (2015).             %
     %   D.C. Langreth et al., J. Phys.: Condens. Matter 21, 084203 (2009). %
     %                                                                      %
     %                                                                      %
     % If you are calculating the stress with vdW-DF, please also cite:     %
     %                                                                      %
     %   R. Sabatini et al., J. Phys.: Condens. Matter 24, 424209 (2012).   %
     %                                                                      %
     %%%%%%%%%%%%%%%%%%%%%%%%%%%%%%%%%%%%%%%%%%%%%%%%%%%%%%%%%%%%%%%%%%%%%%%%

     Adding external electric field

     Computed dipole along edir(3) :
        Dipole               -0.0000 Ry au,         -0.0000 Debye
        Dipole field         -0.0000 Ry au,

        E field amplitude [Ha a.u.]:  9.7235E-03
        Potential amp.        0.6982 Ry
        Total length         35.9048 bohr

     Starting wfcs are   16 randomized atomic wfcs

     Self-consistent Calculation

     iteration #  1     ecut=    80.00 Ry     beta= 0.70
     Davidson diagonalization with overlap
     ethr =  1.00E-02,  avg # of iterations =  4.2

     Threshold (ethr) on eigenvalues was too large:
     Diagonalizing with lowered threshold

     Davidson diagonalization with overlap
     ethr =  7.23E-04,  avg # of iterations =  8.0

[...]

     total energy              =     -48.25791721 Ry
     estimated scf accuracy    <       0.41593316 Ry

[...]

     iteration #  6     ecut=    80.00 Ry     beta= 0.70
     Davidson diagonalization with overlap
     c_bands:  2 eigenvalues not converged
     c_bands:  2 eigenvalues not converged
     c_bands:  1 eigenvalues not converged
     c_bands:  2 eigenvalues not converged
     c_bands:  1 eigenvalues not converged
     ethr =  1.21E-04,  avg # of iterations = 10.8
     Minimization algorithm failed to find Fermi energy: reverting to bisection
     Possible cause: smearing is larger than the electronic band-gap.

[...]

     WARNING: integrated charge=    16.00237485, expected=    16.00000000

[...]

     iteration # 10     ecut=    80.00 Ry     beta= 0.70
     Davidson diagonalization with overlap
     c_bands:  2 eigenvalues not converged
     ethr =  1.65E-05,  avg # of iterations =  3.9

[...]

     iteration # 14     ecut=    80.00 Ry     beta= 0.70
     Davidson diagonalization with overlap
     c_bands:  1 eigenvalues not converged
     c_bands:  2 eigenvalues not converged
     c_bands:  2 eigenvalues not converged
     c_bands:  1 eigenvalues not converged
     c_bands:  1 eigenvalues not converged
     c_bands:  2 eigenvalues not converged
     c_bands:  2 eigenvalues not converged
     c_bands:  1 eigenvalues not converged
     c_bands:  1 eigenvalues not converged
     c_bands:  2 eigenvalues not converged
     ethr =  1.25E-07,  avg # of iterations = 14.2

[...]

     total energy              =     -48.34503441 Ry
     estimated scf accuracy    <          2.5E-09 Ry

     iteration # 24     ecut=    80.00 Ry     beta= 0.70
     Davidson diagonalization with overlap
     ethr =  1.55E-11,  avg # of iterations =  1.9

     negative rho (up, down):  3.033E-05 0.000E+00

     Adding external electric field

     Computed dipole along edir(3) :
        Dipole                0.1256 Ry au,          0.3192 Debye
        Dipole field          0.0022 Ry au,

        E field amplitude [Ha a.u.]:  9.7235E-03
        Potential amp.        0.5413 Ry
        Total length         35.9048 bohr

     End of self-consistent calculation

          k = 0.0000 0.0000 0.0000 (  8771 PWs)   bands (ev):

   -20.4385 -19.8258  -8.7855  -7.7873  -4.4377  -4.4377  -3.8369  -3.8369
     0.7243   1.9111   3.0684   4.5174

[...]

          k = 0.3750 0.0722 0.0000 (  8724 PWs)   bands (ev):

[...]

          k =-0.5000-0.2887 0.0000 (  8730 PWs)   bands (ev):

[...]

          k =-0.5000-0.8660 0.0000 (  8730 PWs)   bands (ev):

   -15.4030 -14.7996 -14.2073 -13.6047  -7.6409  -7.0394  -3.5066  -2.8395
     0.4871   1.1609   6.1709   6.7915

     the Fermi energy is    -0.7011 ev

     WARNING: integrated charge=    16.00034868, expected=    16.00000000

!    total energy              =     -48.34503444 Ry
     estimated scf accuracy    <          2.2E-10 Ry
     smearing contrib. (-TS)   =       0.00000543 Ry
     internal energy E=F+TS    =     -48.34503986 Ry

     The total energy is F=E-TS. E is the sum of the following terms:
     one-electron contribution =    -509.82912395 Ry
     hartree contribution      =     258.52784839 Ry
     xc contribution           =     -17.10504709 Ry
     ewald contribution        =     220.06345062 Ry
     electric field correction =      -0.00216783 Ry

     convergence has been achieved in  24 iterations

     Writing all to output data dir ../tmp/bi-gr.save/

     General routines

     Parallel routines

   This run was terminated on:  10:46:38   3Feb2022

   JOB DONE.