     Program PWSCF v.6.7MaX starts on  1Jan2023 at 16:11: 2

     R & G space division:  proc/nbgrp/npool/nimage =       4
     Waiting for input...
     Reading input from standard input

     Current dimensions of program PWSCF are:
     Max number of different atomic species (ntypx) = 10
     Max number of k-points (npk) =  40000
     Max angular momentum in pseudopotentials (lmaxx) =  3
     file Mo.rel-pbe-spn-rrkjus_psl.1.0.0.UPF: wavefunction(s)  4S renormalized

     bravais-lattice index     =            4
     lattice parameter (alat)  =       6.0141  a.u.
     unit-cell volume          =    1183.8569 (a.u.)^3
     number of atoms/cell      =            3
     number of atomic types    =            2
     number of electrons       =        26.00
     number of Kohn-Sham states=           26
     kinetic-energy cutoff     =      60.0000  Ry
     charge density cutoff     =     240.0000  Ry
     scf convergence threshold =      1.0E-06
     mixing beta               =       0.7000
     number of iterations used =            8  plain     mixing
     Exchange-correlation= PBE
                           (   1   4   3   4   0   0   0)
     Non magnetic calculation with spin-orbit

     celldm(1)=   6.014089  celldm(2)=   0.000000  celldm(3)=   6.284330
     celldm(4)=   0.000000  celldm(5)=   0.000000  celldm(6)=   0.000000

     crystal axes: (cart. coord. in units of alat)
               a(1) = (   1.000000   0.000000   0.000000 )
               a(2) = (  -0.500000   0.866025   0.000000 )
               a(3) = (   0.000000   0.000000   6.284330 )

     reciprocal axes: (cart. coord. in units 2 pi/alat)
               b(1) = (  1.000000  0.577350 -0.000000 )
               b(2) = (  0.000000  1.154701  0.000000 )
               b(3) = (  0.000000 -0.000000  0.159126 )

     PseudoPot. # 1 for Mo read from file:
     ../pseudo/Mo.rel-pbe-spn-rrkjus_psl.1.0.0.UPF
     MD5 check sum: efb2e050edcba4ab52b616d1147efb03
     Pseudo is Ultrasoft + core correction, Zval = 14.0
     Generated using &quot;atomic&quot; code by A. Dal Corso  v.6.3
     Using radial grid of 1229 points, 10 beta functions with:
                l(1) =   0
                l(2) =   0
                l(3) =   1
                l(4) =   1
                l(5) =   1
                l(6) =   1
                l(7) =   2
                l(8) =   2
                l(9) =   2
               l(10) =   2
     Q(r) pseudized with 0 coefficients

     PseudoPot. # 2 for S  read from file:
     ../pseudo/S.rel-pbe-nl-rrkjus_psl.1.0.0.UPF
     MD5 check sum: 80b074254335e853e3620d9b035327a4
     Pseudo is Ultrasoft + core correction, Zval =  6.0
     Generated using &quot;atomic&quot; code by A. Dal Corso  v.6.3
     Using radial grid of 1151 points,  6 beta functions with:
                l(1) =   0
                l(2) =   0
                l(3) =   1
                l(4) =   1
                l(5) =   1
                l(6) =   1
     Q(r) pseudized with 0 coefficients

     atomic species   valence    mass     pseudopotential
        Mo            14.00    95.94000     Mo( 1.00)
        S              6.00    32.06500     S ( 1.00)

     12 Sym. Ops. (no inversion) found

   Cartesian axes

     site n.     atom                  positions (alat units)
         1           Mo  tau(   1) = (   0.0000000   0.0000000   3.1421652  )
         2           S   tau(   2) = (  -0.0000000   0.5773503   2.6504465  )
         3           S   tau(   3) = (  -0.0000000   0.5773503   3.6338831  )

     number of k points=     7
                       cart. coord. in units 2pi/alat
        k(    1) = (   0.0000000   0.0000000   0.0000000), wk =   0.0277778
        k(    2) = (   0.0000000   0.1924501   0.0000000), wk =   0.1666667
        k(    3) = (   0.0000000   0.3849002   0.0000000), wk =   0.1666667
        k(    4) = (   0.0000000  -0.5773503   0.0000000), wk =   0.0833333
        k(    5) = (   0.1666667   0.2886751   0.0000000), wk =   0.1666667
        k(    6) = (   0.1666667   0.4811252   0.0000000), wk =   0.3333333
        k(    7) = (   0.3333333   0.5773503   0.0000000), wk =   0.0555556

     Initial potential from superposition of free atoms

     starting charge   25.99904, renormalised to   26.00000

     negative rho (up, down):  2.509E-03 0.000E+00
     Starting wfcs are   36 randomized atomic wfcs

     Self-consistent Calculation

     iteration #  1     ecut=    60.00 Ry     beta= 0.70
     Davidson diagonalization with overlap
     ethr =  1.00E-02,  avg # of iterations =  2.0

     Threshold (ethr) on eigenvalues was too large:
     Diagonalizing with lowered threshold

     Davidson diagonalization with overlap
     ethr =  2.64E-04,  avg # of iterations =  3.7

     negative rho (up, down):  2.795E-03 0.000E+00

     total energy              =    -181.59121303 Ry
     estimated scf accuracy    <       0.11312636 Ry

[...]

     total energy              =    -181.63199964 Ry
     estimated scf accuracy    <       0.00000508 Ry

     iteration # 12     ecut=    60.00 Ry     beta= 0.70
     Davidson diagonalization with overlap
     ethr =  1.95E-08,  avg # of iterations =  4.4

     negative rho (up, down):  2.832E-03 0.000E+00

     End of self-consistent calculation

          k = 0.0000 0.0000 0.0000 (  9363 PWs)   bands (ev):

   -61.8255 -61.8255 -37.5509 -37.5509 -35.1177 -35.1177 -34.9674 -34.9674
   -15.0331 -15.0331 -13.7406 -13.7406  -6.5668  -6.5668  -3.5872  -3.5872
    -3.5221  -3.5221  -2.7396  -2.7396  -2.4924  -2.4924  -2.4075  -2.4075
    -0.9746  -0.9746

[...]

          k = 0.3333 0.5774 0.0000 (  9234 PWs)   bands (ev):

   -61.7831 -61.7831 -37.6832 -37.6600 -35.2699 -35.2223 -35.1580 -35.1429
   -12.9308 -12.8694 -12.8299 -12.8261  -6.3504  -6.3437  -5.5533  -5.5178
    -5.0474  -4.9902  -4.5274  -4.5101  -3.8560  -3.8059  -3.1403  -3.1166
    -1.0467  -0.8982

     highest occupied level (ev):    -0.8982

!    total energy              =    -181.63200089 Ry
     estimated scf accuracy    <       0.00000004 Ry

     The total energy is the sum of the following terms:
     one-electron contribution =   -1116.84738640 Ry
     hartree contribution      =     558.64924007 Ry
     xc contribution           =     -29.70817864 Ry
     ewald contribution        =     406.27432408 Ry

     convergence has been achieved in  12 iterations

     Writing output data file ../tmp/mos2.save/

     General routines

     Parallel routines

   This run was terminated on:  16:11:29   1Jan2023

   JOB DONE.